C H                                     
   1.00000000000000     
    40.0000000000000000    0.0000000000000000    0.0000000000000000
     0.0000000000000000   40.0000000000000000    0.0000000000000000
     0.0000000000000000    0.0000000000000000   40.0000000000000000
   C    H 
     9    12
Selective dynamics
Direct
  0.4735642704699941  0.4773787140532005  0.4999698411537005   T   T   T
  0.5063517429013064  0.4652492424203082  0.4999523299129289   T   T   T
  0.5134948727216896  0.4282318892167210  0.5000108581400649   T   T   T
  0.5328070693197757  0.4884215381976880  0.4999267431554759   T   T   T
  0.5269056221255943  0.5228830414223707  0.4999115150488423   T   T   T
  0.5554102415556614  0.5475562795580469  0.5000155625719517   T   T   T
  0.4936260217749235  0.5342320278674413  0.4999087779568804   T   T   T
  0.4667343091506119  0.5118772043026217  0.4999527189913937   T   T   T
  0.4310940341290607  0.5241936254130900  0.5000260353206420   T   T   T
  0.4903306639317831  0.4135292915900939  0.4990724173873797   T   T   T
  0.5273521867958657  0.4208666207408624  0.5226230924731737   T   T   T
  0.5290712944506827  0.4210870914253751  0.4784826107423940   T   T   T
  0.5797062901938513  0.5348665741232970  0.4985281879069683   T   T   T
  0.5535224428074438  0.5650041191305527  0.4788276837679704   T   T   T
  0.5551833286795362  0.5628352845054312  0.5229094285136455   T   T   T
  0.4171074700009435  0.5142279351819501  0.4785339463390041   T   T   T
  0.4299260591023927  0.5516025432993110  0.4990377220099136   T   T   T
  0.4178216864169568  0.5159102083318875  0.5226660459764855   T   T   T
  0.4886358110936744  0.5611191191258936  0.4998472720346717   T   T   T
  0.5585841134142361  0.4793052703622224  0.4998701486407175   T   T   T
  0.4527704689640084  0.4596223797316136  0.4999270619557745   T   T   T
 
  0.00000000E+00  0.00000000E+00  0.00000000E+00
  0.00000000E+00  0.00000000E+00  0.00000000E+00
  0.00000000E+00  0.00000000E+00  0.00000000E+00
  0.00000000E+00  0.00000000E+00  0.00000000E+00
  0.00000000E+00  0.00000000E+00  0.00000000E+00
  0.00000000E+00  0.00000000E+00  0.00000000E+00
  0.00000000E+00  0.00000000E+00  0.00000000E+00
  0.00000000E+00  0.00000000E+00  0.00000000E+00
  0.00000000E+00  0.00000000E+00  0.00000000E+00
  0.00000000E+00  0.00000000E+00  0.00000000E+00
  0.00000000E+00  0.00000000E+00  0.00000000E+00
  0.00000000E+00  0.00000000E+00  0.00000000E+00
  0.00000000E+00  0.00000000E+00  0.00000000E+00
  0.00000000E+00  0.00000000E+00  0.00000000E+00
  0.00000000E+00  0.00000000E+00  0.00000000E+00
  0.00000000E+00  0.00000000E+00  0.00000000E+00
  0.00000000E+00  0.00000000E+00  0.00000000E+00
  0.00000000E+00  0.00000000E+00  0.00000000E+00
  0.00000000E+00  0.00000000E+00  0.00000000E+00
  0.00000000E+00  0.00000000E+00  0.00000000E+00
  0.00000000E+00  0.00000000E+00  0.00000000E+00
