C H                                     
   1.00000000000000     
    40.0000000000000000    0.0000000000000000    0.0000000000000000
     0.0000000000000000   40.0000000000000000    0.0000000000000000
     0.0000000000000000    0.0000000000000000   40.0000000000000000
   C    H 
    12    14
Selective dynamics
Direct
  0.5203844645828724  0.4857456828986431  0.4966451762763454   T   T   T
  0.5476100887295042  0.4639534143002390  0.5006559684200649   T   T   T
  0.5801446309946453  0.4756147933222477  0.5037549656499717   T   T   T
  0.5864274642390309  0.5098603339399832  0.5020450608135461   T   T   T
  0.5599455590710559  0.5318131604767892  0.4977847868395209   T   T   T
  0.5267048028093021  0.5206523007435013  0.4957553073023248   T   T   T
  0.5007699438212451  0.5464350707049589  0.4933241734564796   T   T   T
  0.4696496394348511  0.5453044483419176  0.5056858819521582   T   T   T
  0.4449541228763871  0.5731153649110606  0.5033123453881385   T   T   T
  0.4867402393935882  0.4720886101941791  0.4915441824711277   T   T   T
  0.4747842373305636  0.4439378007747857  0.5051515726318163   T   T   T
  0.4407962812727041  0.4300667915655134  0.4986040883008658   T   T   T
  0.4221445098343956  0.5647086031012352  0.4906948865004668   T   T   T
  0.4372638974125149  0.5814589066715913  0.5282357855121158   T   T   T
  0.4550265811391703  0.5944950866476680  0.4896809329050067   T   T   T
  0.4613980725102524  0.5230954906531533  0.5190008463065006   T   T   T
  0.5089357025581864  0.5696496827071973  0.4815847010062172   T   T   T
  0.5646758936382239  0.5585178198306866  0.4965347480866339   T   T   T
  0.6117752898351327  0.5193128917184404  0.5038231157561764   T   T   T
  0.6005917086144547  0.4580341359357650  0.5066905040121431   T   T   T
  0.5430057491236597  0.4372203821096438  0.5003009022587374   T   T   T
  0.4268482369395396  0.4455203804240960  0.4809607190915722   T   T   T
  0.4423707948636086  0.4046600149097025  0.4884914426238242   T   T   T
  0.4263727639261731  0.4281839859804397  0.5218098556727346   T   T   T
  0.4902685042004261  0.4300565442369874  0.5227247511058146   T   T   T
  0.4704118208485303  0.4864973028995705  0.4752022996596986   T   T   T
 
  0.00000000E+00  0.00000000E+00  0.00000000E+00
  0.00000000E+00  0.00000000E+00  0.00000000E+00
  0.00000000E+00  0.00000000E+00  0.00000000E+00
  0.00000000E+00  0.00000000E+00  0.00000000E+00
  0.00000000E+00  0.00000000E+00  0.00000000E+00
  0.00000000E+00  0.00000000E+00  0.00000000E+00
  0.00000000E+00  0.00000000E+00  0.00000000E+00
  0.00000000E+00  0.00000000E+00  0.00000000E+00
  0.00000000E+00  0.00000000E+00  0.00000000E+00
  0.00000000E+00  0.00000000E+00  0.00000000E+00
  0.00000000E+00  0.00000000E+00  0.00000000E+00
  0.00000000E+00  0.00000000E+00  0.00000000E+00
  0.00000000E+00  0.00000000E+00  0.00000000E+00
  0.00000000E+00  0.00000000E+00  0.00000000E+00
  0.00000000E+00  0.00000000E+00  0.00000000E+00
  0.00000000E+00  0.00000000E+00  0.00000000E+00
  0.00000000E+00  0.00000000E+00  0.00000000E+00
  0.00000000E+00  0.00000000E+00  0.00000000E+00
  0.00000000E+00  0.00000000E+00  0.00000000E+00
  0.00000000E+00  0.00000000E+00  0.00000000E+00
  0.00000000E+00  0.00000000E+00  0.00000000E+00
  0.00000000E+00  0.00000000E+00  0.00000000E+00
  0.00000000E+00  0.00000000E+00  0.00000000E+00
  0.00000000E+00  0.00000000E+00  0.00000000E+00
  0.00000000E+00  0.00000000E+00  0.00000000E+00
  0.00000000E+00  0.00000000E+00  0.00000000E+00
