C H                                     
   1.00000000000000     
    40.0000000000000000    0.0000000000000000    0.0000000000000000
     0.0000000000000000   40.0000000000000000    0.0000000000000000
     0.0000000000000000    0.0000000000000000   40.0000000000000000
   C    H 
     6     6
Selective dynamics
Direct
  0.4692884468623149  0.5167225722941851  0.5000000000000000   T   T   T
  0.4991258084858359  0.5349598452920148  0.5000000000000000   T   T   T
  0.5298335081240850  0.5182366523569897  0.5000000000000000   T   T   T
  0.5307115531376851  0.4832774277058149  0.5000000000000000   T   T   T
  0.5008741915141641  0.4650401547079852  0.5000000000000000   T   T   T
  0.4701664918759150  0.4817633476430103  0.5000000000000000   T   T   T
  0.4468806245232528  0.4675312142011379  0.5000000000000000   T   T   T
  0.5015597352352188  0.4377614711513829  0.5000000000000000   T   T   T
  0.5546791066691839  0.4702326698225363  0.4999990000000025   T   T   T
  0.5531193754767543  0.5324687857988621  0.5000000000000000   T   T   T
  0.4984402647647883  0.5622385288486171  0.5000000000000000   T   T   T
  0.4453208933308090  0.5297673301774708  0.5000000000000000   T   T   T
 
  0.00000000E+00  0.00000000E+00  0.00000000E+00
  0.00000000E+00  0.00000000E+00  0.00000000E+00
  0.00000000E+00  0.00000000E+00  0.00000000E+00
  0.00000000E+00  0.00000000E+00  0.00000000E+00
  0.00000000E+00  0.00000000E+00  0.00000000E+00
  0.00000000E+00  0.00000000E+00  0.00000000E+00
  0.00000000E+00  0.00000000E+00  0.00000000E+00
  0.00000000E+00  0.00000000E+00  0.00000000E+00
  0.00000000E+00  0.00000000E+00  0.00000000E+00
  0.00000000E+00  0.00000000E+00  0.00000000E+00
  0.00000000E+00  0.00000000E+00  0.00000000E+00
  0.00000000E+00  0.00000000E+00  0.00000000E+00
