!B3LYP opt aug-cc-pVTZ d3 TightSCF SlowConv RIJCOSX defgrid2

%pal
nprocs 8
end

%scf
MaxIter 1500
end

%maxcore 3500

!CPCM
%cpcm smd true
SMDsolvent "MeCN"
surfacetype gepol_ses
rsolv 2.19
end 

* xyz 0 1
  C           0.69139522684059     -1.22664316199288     -0.00221797916935
  C          -0.69208843426613     -1.22326302618807     -0.00196525733051
  C          -1.34616039220304      0.00368865913958     -0.00023297142970
  C          -0.66844027654226      1.21468227709966      0.00138953263473
  C           0.71843497009282      1.19248771948923      0.00066270652995
  C           1.40687036809188     -0.02425170438717     -0.00101619596594
  C           2.90525430739599     -0.08038259963976     -0.00146963485712
  O           3.47382029732778     -1.16302464690175      0.00111415420213
  C           3.67189657948305      1.21206200897054     -0.00465317637956
  H           3.41916712103349      1.80793633317031      0.87637239446926
  H           4.73910184710129      1.00122370195943     -0.00799457044905
  H           3.41331173583201      1.80745504721735     -0.88415133468888
  H           1.25644606715329      2.13013407948356      0.00099979092485
  H          -1.21526162161310      2.14578953100855      0.00342527162178
  N          -2.81540793846571      0.01898129684798      0.00093485387668
  O          -3.38103867502306      1.10941225945787      0.00330237637192
  O          -3.40288918840984     -1.05983019471924     -0.00027163185462
  H          -1.25884617768305     -2.14248628889820     -0.00267181367981
  H           1.23537608385400     -2.16135779111698     -0.00359121482675
*
