C H                                     
   1.00000000000000     
    40.0000000000000000    0.0000000000000000    0.0000000000000000
     0.0000000000000000   40.0000000000000000    0.0000000000000000
     0.0000000000000000    0.0000000000000000   40.0000000000000000
   C    H 
    10     8
Selective dynamics
Direct
  0.5612579333041182  0.4825658925912023  0.5000000000000000   T   T   T
  0.5612579333041182  0.5174321074088029  0.5000000000000000   T   T   T
  0.5308832421936466  0.5351287409344209  0.5000000000000000   T   T   T
  0.5000000000000000  0.5179045658747061  0.5000000000000000   T   T   T
  0.4691177578063579  0.5351297409344183  0.5000000000000000   T   T   T
  0.4387420666958818  0.5174341074087978  0.5000000000000000   T   T   T
  0.4387420666958818  0.4825678925911972  0.5000000000000000   T   T   T
  0.4691167578063534  0.4648712590655792  0.5000000000000000   T   T   T
  0.5000000000000000  0.4820954341252939  0.5000000000000000   T   T   T
  0.5308822421936420  0.4648702590655818  0.5000000000000000   T   T   T
  0.5310160982885189  0.4376144081093157  0.5000000000000000   T   T   T
  0.4689819017114861  0.4376154081093203  0.5000000000000000   T   T   T
  0.4151933348043713  0.4688917938603596  0.5000000000000000   T   T   T
  0.4151943348043687  0.5311112061396401  0.5000000000000000   T   T   T
  0.4689839017114881  0.5623855918906844  0.5000000000000000   T   T   T
  0.5310180982885139  0.5623845918906798  0.5000000000000000   T   T   T
  0.5848066651956287  0.5311082061396406  0.5000000000000000   T   T   T
  0.5848056651956313  0.4688897938603647  0.5000000000000000   T   T   T
 
  0.00000000E+00  0.00000000E+00  0.00000000E+00
  0.00000000E+00  0.00000000E+00  0.00000000E+00
  0.00000000E+00  0.00000000E+00  0.00000000E+00
  0.00000000E+00  0.00000000E+00  0.00000000E+00
  0.00000000E+00  0.00000000E+00  0.00000000E+00
  0.00000000E+00  0.00000000E+00  0.00000000E+00
  0.00000000E+00  0.00000000E+00  0.00000000E+00
  0.00000000E+00  0.00000000E+00  0.00000000E+00
  0.00000000E+00  0.00000000E+00  0.00000000E+00
  0.00000000E+00  0.00000000E+00  0.00000000E+00
  0.00000000E+00  0.00000000E+00  0.00000000E+00
  0.00000000E+00  0.00000000E+00  0.00000000E+00
  0.00000000E+00  0.00000000E+00  0.00000000E+00
  0.00000000E+00  0.00000000E+00  0.00000000E+00
  0.00000000E+00  0.00000000E+00  0.00000000E+00
  0.00000000E+00  0.00000000E+00  0.00000000E+00
  0.00000000E+00  0.00000000E+00  0.00000000E+00
  0.00000000E+00  0.00000000E+00  0.00000000E+00
