C O S H                                 
   1.00000000000000     
    40.0000000000000000    0.0000000000000000    0.0000000000000000
     0.0000000000000000   40.0000000000000000    0.0000000000000000
     0.0000000000000000    0.0000000000000000   40.0000000000000000
   C    O    S    H 
     7     1     1     8
Selective dynamics
Direct
  0.5516321457784303  0.5014349960637463  0.4977798364099031   T   T   T
  0.5366416445840433  0.5332007514215743  0.4991800983331726   T   T   T
  0.5020424825762289  0.5362560331369719  0.5010503536369523   T   T   T
  0.4816489941596835  0.5076671881578355  0.5019362772545586   T   T   T
  0.4964272197874239  0.4759003712370471  0.5009943149874400   T   T   T
  0.5312204447432493  0.4729998429222765  0.4987665594353403   T   T   T
  0.4262770951891869  0.4847046668813754  0.5035144910858947   T   T   T
  0.4478788982020580  0.5133832262963985  0.5036233045348619   T   T   T
  0.5955654936120168  0.4957562340211665  0.4955534840462725   T   T   T
  0.5423440410108310  0.4481123928343280  0.4976566033616932   T   T   T
  0.4813327787857099  0.4532638074088257  0.5016922057574384   T   T   T
  0.4007746082488997  0.4946154280088960  0.5043475159159549   T   T   T
  0.4296717477324478  0.4698379602183813  0.4805826586580291   T   T   T
  0.4307263256340688  0.4688090697561025  0.5255566371727247   T   T   T
  0.4903863102374467  0.5608889750782516  0.5019029324926502   T   T   T
  0.5520353937148749  0.5557075181610410  0.4987479713196274   T   T   T
  0.6033923760033698  0.5274625383958081  0.4871127555975056   T   T   T
 
  0.00000000E+00  0.00000000E+00  0.00000000E+00
  0.00000000E+00  0.00000000E+00  0.00000000E+00
  0.00000000E+00  0.00000000E+00  0.00000000E+00
  0.00000000E+00  0.00000000E+00  0.00000000E+00
  0.00000000E+00  0.00000000E+00  0.00000000E+00
  0.00000000E+00  0.00000000E+00  0.00000000E+00
  0.00000000E+00  0.00000000E+00  0.00000000E+00
  0.00000000E+00  0.00000000E+00  0.00000000E+00
  0.00000000E+00  0.00000000E+00  0.00000000E+00
  0.00000000E+00  0.00000000E+00  0.00000000E+00
  0.00000000E+00  0.00000000E+00  0.00000000E+00
  0.00000000E+00  0.00000000E+00  0.00000000E+00
  0.00000000E+00  0.00000000E+00  0.00000000E+00
  0.00000000E+00  0.00000000E+00  0.00000000E+00
  0.00000000E+00  0.00000000E+00  0.00000000E+00
  0.00000000E+00  0.00000000E+00  0.00000000E+00
  0.00000000E+00  0.00000000E+00  0.00000000E+00
