C O H                                   
   1.00000000000000     
    40.0000000000000000    0.0000000000000000    0.0000000000000000
     0.0000000000000000   40.0000000000000000    0.0000000000000000
     0.0000000000000000    0.0000000000000000   40.0000000000000000
   C    O    H 
    10     1    12
Selective dynamics
Direct
  0.4858262793148203  0.5199308581905151  0.4999960248951451   T   T   T
  0.4535969559891641  0.5066167314597517  0.4999977899104061   T   T   T
  0.4490377072259189  0.4721516573813297  0.5000000448197179   T   T   T
  0.4771870225913687  0.4515859980123311  0.5000008014752424   T   T   T
  0.5091706017500867  0.4646359462141231  0.5000002027566957   T   T   T
  0.5139375954383019  0.4994076757930875  0.4999973457962859   T   T   T
  0.5469363856274800  0.5153072636256857  0.4999942839306277   T   T   T
  0.5766315985094369  0.5000585504982296  0.5000030520114592   T   T   T
  0.6093748795821784  0.5177523477302221  0.4999998367338538   T   T   T
  0.3950044998877435  0.5171726333796903  0.5000037745091219   T   T   T
  0.4283314119801271  0.5292751884069863  0.4999997846054654   T   T   T
  0.6242514887537117  0.5107721450047775  0.4781105736838717   T   T   T
  0.6242464383951727  0.5107856486471557  0.5218965555619945   T   T   T
  0.6062035472852449  0.5448527794454645  0.4999910902577224   T   T   T
  0.5778053728501366  0.4728981380884642  0.5000106362016650   T   T   T
  0.5465178348224704  0.5425162433598208  0.4999876258896950   T   T   T
  0.5304179381583015  0.4478486813819829  0.4999973753219837   T   T   T
  0.4737156305644787  0.4247056634510185  0.5000017323999569   T   T   T
  0.4243307833355673  0.4611938884392914  0.5000033185040339   T   T   T
  0.3789962713967744  0.5391568710836689  0.5000040438891615   T   T   T
  0.3899087272062138  0.5022398965887990  0.5223222261385044   T   T   T
  0.3899044899850498  0.5022372475223859  0.4776881216891153   T   T   T
  0.4886665393502732  0.5468979462952257  0.4999937590182389   T   T   T
 
  0.00000000E+00  0.00000000E+00  0.00000000E+00
  0.00000000E+00  0.00000000E+00  0.00000000E+00
  0.00000000E+00  0.00000000E+00  0.00000000E+00
  0.00000000E+00  0.00000000E+00  0.00000000E+00
  0.00000000E+00  0.00000000E+00  0.00000000E+00
  0.00000000E+00  0.00000000E+00  0.00000000E+00
  0.00000000E+00  0.00000000E+00  0.00000000E+00
  0.00000000E+00  0.00000000E+00  0.00000000E+00
  0.00000000E+00  0.00000000E+00  0.00000000E+00
  0.00000000E+00  0.00000000E+00  0.00000000E+00
  0.00000000E+00  0.00000000E+00  0.00000000E+00
  0.00000000E+00  0.00000000E+00  0.00000000E+00
  0.00000000E+00  0.00000000E+00  0.00000000E+00
  0.00000000E+00  0.00000000E+00  0.00000000E+00
  0.00000000E+00  0.00000000E+00  0.00000000E+00
  0.00000000E+00  0.00000000E+00  0.00000000E+00
  0.00000000E+00  0.00000000E+00  0.00000000E+00
  0.00000000E+00  0.00000000E+00  0.00000000E+00
  0.00000000E+00  0.00000000E+00  0.00000000E+00
  0.00000000E+00  0.00000000E+00  0.00000000E+00
  0.00000000E+00  0.00000000E+00  0.00000000E+00
  0.00000000E+00  0.00000000E+00  0.00000000E+00
  0.00000000E+00  0.00000000E+00  0.00000000E+00
