!r2SCANh freq aug-cc-pVTZ d3 TightSCF SlowConv RIJCOSX defgrid2

%pal
nprocs 12
end

%scf
MaxIter 1500
end

%maxcore 5000

!CPCM
%cpcm smd true
SMDsolvent "MeCN"
surfacetype gepol_ses
rsolv 2.19
end 

* xyz 1 2
C           2.43259988834347     -0.69125982033197     -0.00011196012866
C           2.43262213193499      0.69119720169873     -0.00022761471395
C           1.22550964585082      1.39446915713416     -0.00023850071770
C           0.00001163029705      0.71111503002702     -0.00000369682321
C          -1.22546819164742      1.39450009216893      0.00024663689043
C          -2.43259894789919      0.69125699006977      0.00024592777530
C          -2.43261316164836     -0.69119956780544      0.00013582786536
C          -1.22549720515723     -1.39446055448208      0.00013848661482
C          -0.00000610185636     -0.71109832310489     -0.00000943030614
C           1.22546395632816     -1.39449127038663     -0.00014553084699
H           1.22945302167647     -2.47575996217081     -0.00012166762487
H          -1.22952215267889     -2.47573366465741      0.00010510153453
H          -3.36593887235795     -1.23468228287453     -0.00034872209505
H          -3.36591612529285      1.23475539689920     -0.00017589652137
H          -1.22946942459448      2.47576924302505      0.00027384998911
H           1.22954313552249      2.47573902108119     -0.00026370012604
H           3.36594929686990      1.23467212526435      0.00018494623935
H           3.36590847630939     -1.23476681155465      0.00039254299507
*
