C O H                                   
   1.00000000000000     
    40.0000000000000000    0.0000000000000000    0.0000000000000000
     0.0000000000000000   40.0000000000000000    0.0000000000000000
     0.0000000000000000    0.0000000000000000   40.0000000000000000
   C    O    H 
     4     2     8
Selective dynamics
Direct
  0.5181950191588891  0.4705372258199603  0.5054957409963445   T   T   T
  0.4818069808411057  0.4705362258199557  0.4945042590036555   T   T   T
  0.4818049808411107  0.5294627741800397  0.4945042590036555   T   T   T
  0.5181930191588942  0.5294637741800443  0.5054957409963445   T   T   T
  0.4648603131607555  0.4999990000000025  0.5063299442589696   T   T   T
  0.5351396868392444  0.5000009999999975  0.4936700557410304   T   T   T
  0.4684401246670559  0.4489725458374791  0.5050312184586390   T   T   T
  0.4803193115407773  0.4694842206844770  0.4668895494038336   T   T   T
  0.5315598753329439  0.5510274541625209  0.4949687815413610   T   T   T
  0.5196806884592226  0.5305157793155232  0.5331104505961665   T   T   T
  0.4684371246670564  0.5510254541625188  0.5050322184586435   T   T   T
  0.4803163115407778  0.5305157793155232  0.4668905494038382   T   T   T
  0.5315628753329434  0.4489745458374812  0.4949677815413565   T   T   T
  0.5196836884592221  0.4694842206844770  0.5331094505961619   T   T   T
 
  0.00000000E+00  0.00000000E+00  0.00000000E+00
  0.00000000E+00  0.00000000E+00  0.00000000E+00
  0.00000000E+00  0.00000000E+00  0.00000000E+00
  0.00000000E+00  0.00000000E+00  0.00000000E+00
  0.00000000E+00  0.00000000E+00  0.00000000E+00
  0.00000000E+00  0.00000000E+00  0.00000000E+00
  0.00000000E+00  0.00000000E+00  0.00000000E+00
  0.00000000E+00  0.00000000E+00  0.00000000E+00
  0.00000000E+00  0.00000000E+00  0.00000000E+00
  0.00000000E+00  0.00000000E+00  0.00000000E+00
  0.00000000E+00  0.00000000E+00  0.00000000E+00
  0.00000000E+00  0.00000000E+00  0.00000000E+00
  0.00000000E+00  0.00000000E+00  0.00000000E+00
  0.00000000E+00  0.00000000E+00  0.00000000E+00
