C O H                                   
   1.00000000000000     
    40.0000000000000000    0.0000000000000000    0.0000000000000000
     0.0000000000000000   40.0000000000000000    0.0000000000000000
     0.0000000000000000    0.0000000000000000   40.0000000000000000
   C    O    H 
    10     1    12
Selective dynamics
Direct
  0.4726477890622860  0.4910736672270843  0.4995013111174202   T   T   T
  0.4406526453285267  0.5053407279433202  0.5009053535728327   T   T   T
  0.4370182156470150  0.5401188099544569  0.5010591677791112   T   T   T
  0.4651774476466173  0.5607502507192379  0.4996076949257642   T   T   T
  0.4969416791733821  0.5464081903302329  0.4980124734949953   T   T   T
  0.5017060325684142  0.5115747770013357  0.4981095243123832   T   T   T
  0.5348673706588229  0.4959309005978483  0.4965463820494804   T   T   T
  0.5644717402472992  0.5107182712298837  0.5029010942244696   T   T   T
  0.5975322120500763  0.4933782050590523  0.5005789379704595   T   T   T
  0.4499031483321119  0.4352593778149085  0.5004918489682382   T   T   T
  0.4782357640373789  0.4572641332823792  0.4996911398251527   T   T   T
  0.5946952497676463  0.4670457587816728  0.4932651796647889   T   T   T
  0.6139584819764821  0.5057292033077303  0.4822029615927121   T   T   T
  0.6109375782613213  0.4943089787327182  0.5246457176075836   T   T   T
  0.5652171333960609  0.5370038382136073  0.5105763605822204   T   T   T
  0.5350367536913794  0.4694037559226203  0.4899180951081661   T   T   T
  0.5187982320597300  0.5626510089485208  0.4962354505532716   T   T   T
  0.4624251035701263  0.5878794951288810  0.4994387589828833   T   T   T
  0.4119959030365337  0.5509334524101845  0.5022111604565183   T   T   T
  0.4185162736474268  0.4895490644857574  0.5020396746357747   T   T   T
  0.4337117550974128  0.4389946232246515  0.4785432377313299   T   T   T
  0.4352169116338018  0.4387334156781222  0.5235144722109055   T   T   T
  0.4603345791101177  0.4099510940057982  0.5000030026335551   T   T   T
 
  0.00000000E+00  0.00000000E+00  0.00000000E+00
  0.00000000E+00  0.00000000E+00  0.00000000E+00
  0.00000000E+00  0.00000000E+00  0.00000000E+00
  0.00000000E+00  0.00000000E+00  0.00000000E+00
  0.00000000E+00  0.00000000E+00  0.00000000E+00
  0.00000000E+00  0.00000000E+00  0.00000000E+00
  0.00000000E+00  0.00000000E+00  0.00000000E+00
  0.00000000E+00  0.00000000E+00  0.00000000E+00
  0.00000000E+00  0.00000000E+00  0.00000000E+00
  0.00000000E+00  0.00000000E+00  0.00000000E+00
  0.00000000E+00  0.00000000E+00  0.00000000E+00
  0.00000000E+00  0.00000000E+00  0.00000000E+00
  0.00000000E+00  0.00000000E+00  0.00000000E+00
  0.00000000E+00  0.00000000E+00  0.00000000E+00
  0.00000000E+00  0.00000000E+00  0.00000000E+00
  0.00000000E+00  0.00000000E+00  0.00000000E+00
  0.00000000E+00  0.00000000E+00  0.00000000E+00
  0.00000000E+00  0.00000000E+00  0.00000000E+00
  0.00000000E+00  0.00000000E+00  0.00000000E+00
  0.00000000E+00  0.00000000E+00  0.00000000E+00
  0.00000000E+00  0.00000000E+00  0.00000000E+00
  0.00000000E+00  0.00000000E+00  0.00000000E+00
  0.00000000E+00  0.00000000E+00  0.00000000E+00
