C N H                                   
   1.00000000000000     
    40.0000000000000000    0.0000000000000000    0.0000000000000000
     0.0000000000000000   40.0000000000000000    0.0000000000000000
     0.0000000000000000    0.0000000000000000   40.0000000000000000
   C    N    H 
     6     1    15
Selective dynamics
Direct
  0.4697249000541610  0.4992341078904601  0.5217926322140753   T   T   T
  0.4419995397147742  0.4999790780383757  0.4951600562626464   T   T   T
  0.5155593775335553  0.4768251300178096  0.4873167609523616   T   T   T
  0.5147588782736012  0.4419053383596019  0.5026607031517983   T   T   T
  0.5110838383937244  0.5366428136824377  0.4967933036751099   T   T   T
  0.5478666362019022  0.5466949171932093  0.4994346661411667   T   T   T
  0.5042708505771175  0.5031880590885610  0.5100780950158270   T   T   T
  0.4174149332064277  0.4975026247714275  0.5072093231584535   T   T   T
  0.4444600371051656  0.4793530792567476  0.4771540578488563   T   T   T
  0.4420213695759489  0.5235688477941859  0.4810364043068615   T   T   T
  0.4681772681247058  0.4756313513892197  0.5358486607313021   T   T   T
  0.4652440344496571  0.5192557923342938  0.5401567047620293   T   T   T
  0.4891518796469068  0.4327866941177609  0.5066839672928898   T   T   T
  0.5271990426417927  0.4240689724213314  0.4858785228825123   T   T   T
  0.5278656285176422  0.4416675349883663  0.5268197731036823   T   T   T
  0.5011376533650612  0.4768532539140569  0.4634807017755595   T   T   T
  0.5415051620015434  0.4827209774795756  0.4803939523092080   T   T   T
  0.5641845711385545  0.5308854184340508  0.4839829382816518   T   T   T
  0.5564351973016889  0.5449000447195981  0.5254771155752158   T   T   T
  0.5511739675768620  0.5726046141289401  0.4908705132301182   T   T   T
  0.5027370005385826  0.5392652681216087  0.4703653713325678   T   T   T
  0.4960292340606007  0.5544670818583790  0.5114057759960986   T   T   T
 
  0.00000000E+00  0.00000000E+00  0.00000000E+00
  0.00000000E+00  0.00000000E+00  0.00000000E+00
  0.00000000E+00  0.00000000E+00  0.00000000E+00
  0.00000000E+00  0.00000000E+00  0.00000000E+00
  0.00000000E+00  0.00000000E+00  0.00000000E+00
  0.00000000E+00  0.00000000E+00  0.00000000E+00
  0.00000000E+00  0.00000000E+00  0.00000000E+00
  0.00000000E+00  0.00000000E+00  0.00000000E+00
  0.00000000E+00  0.00000000E+00  0.00000000E+00
  0.00000000E+00  0.00000000E+00  0.00000000E+00
  0.00000000E+00  0.00000000E+00  0.00000000E+00
  0.00000000E+00  0.00000000E+00  0.00000000E+00
  0.00000000E+00  0.00000000E+00  0.00000000E+00
  0.00000000E+00  0.00000000E+00  0.00000000E+00
  0.00000000E+00  0.00000000E+00  0.00000000E+00
  0.00000000E+00  0.00000000E+00  0.00000000E+00
  0.00000000E+00  0.00000000E+00  0.00000000E+00
  0.00000000E+00  0.00000000E+00  0.00000000E+00
  0.00000000E+00  0.00000000E+00  0.00000000E+00
  0.00000000E+00  0.00000000E+00  0.00000000E+00
  0.00000000E+00  0.00000000E+00  0.00000000E+00
  0.00000000E+00  0.00000000E+00  0.00000000E+00
