C O H                                   
   1.00000000000000     
    40.0000000000000000    0.0000000000000000    0.0000000000000000
     0.0000000000000000   40.0000000000000000    0.0000000000000000
     0.0000000000000000    0.0000000000000000   40.0000000000000000
   C    O    H 
     9     1     8
Selective dynamics
Direct
  0.4880522557347078  0.4778001065570834  0.4999922265397387   T   T   T
  0.4733649060100404  0.5096743981852612  0.4999973155336264   T   T   T
  0.4938628748827938  0.5382522328930364  0.4999967391576234   T   T   T
  0.5283665706902738  0.5350245539470180  0.4999909097422233   T   T   T
  0.5436129034714696  0.5031349890744465  0.4999915152153491   T   T   T
  0.5227861864878918  0.4747754834362823  0.4999881925069687   T   T   T
  0.5790480233177959  0.4998754303878528  0.4999994598979498   T   T   T
  0.6093297829130648  0.4972118363408100  0.5000162864044171   T   T   T
  0.4177567762665291  0.4872780565022694  0.5000089836541122   T   T   T
  0.4397464361630696  0.5155582995681911  0.5000017699125152   T   T   T
  0.5340721609217383  0.4499722327909126  0.4999823661030618   T   T   T
  0.6359722060878497  0.4948025118152088  0.5000295621988116   T   T   T
  0.5440386738498688  0.5573163634087948  0.4999883879141720   T   T   T
  0.4820814147152745  0.5628211644299057  0.4999961499087675   T   T   T
  0.3924103725225905  0.4975895270793558  0.5000163250370875   T   T   T
  0.4213551346479392  0.4718130046571432  0.4775140367299358   T   T   T
  0.4213694738975775  0.4718124171501046  0.5225009749080911   T   T   T
  0.4727728474195203  0.4552873917763094  0.4999887986355418   T   T   T
 
  0.00000000E+00  0.00000000E+00  0.00000000E+00
  0.00000000E+00  0.00000000E+00  0.00000000E+00
  0.00000000E+00  0.00000000E+00  0.00000000E+00
  0.00000000E+00  0.00000000E+00  0.00000000E+00
  0.00000000E+00  0.00000000E+00  0.00000000E+00
  0.00000000E+00  0.00000000E+00  0.00000000E+00
  0.00000000E+00  0.00000000E+00  0.00000000E+00
  0.00000000E+00  0.00000000E+00  0.00000000E+00
  0.00000000E+00  0.00000000E+00  0.00000000E+00
  0.00000000E+00  0.00000000E+00  0.00000000E+00
  0.00000000E+00  0.00000000E+00  0.00000000E+00
  0.00000000E+00  0.00000000E+00  0.00000000E+00
  0.00000000E+00  0.00000000E+00  0.00000000E+00
  0.00000000E+00  0.00000000E+00  0.00000000E+00
  0.00000000E+00  0.00000000E+00  0.00000000E+00
  0.00000000E+00  0.00000000E+00  0.00000000E+00
  0.00000000E+00  0.00000000E+00  0.00000000E+00
  0.00000000E+00  0.00000000E+00  0.00000000E+00
