C N O H                                 
   1.00000000000000     
    25.0000000000000000    0.0000000000000000    0.0000000000000000
     0.0000000000000000   25.0000000000000000    0.0000000000000000
     0.0000000000000000    0.0000000000000000   25.0000000000000000
   C    N    O    H 
     9     2     2    15
Selective dynamics
Direct
  0.5021223711913988  0.4799424025144683  0.4609809038883539   T   T   T
  0.5043358868152706  0.4418910297469508  0.4988560125610385   T   T   T
  0.5018498552478465  0.4630626278024944  0.5546072119117081   T   T   T
  0.4976189217984070  0.5354663789758483  0.4849062444217706   T   T   T
  0.5042277698070903  0.4652809229610030  0.4027120785781986   T   T   T
  0.4442669905661866  0.5647876357629963  0.4742180988993513   T   T   T
  0.5464173573846715  0.5723433750481435  0.4759333699827298   T   T   T
  0.5532214420741864  0.4537304597928906  0.5877867536880627   T   T   T
  0.4513458973099713  0.4461192100135404  0.5860846694686769   T   T   T
  0.4976473321801439  0.5219985086434605  0.5440539055086457   T   T   T
  0.5016867310061558  0.5050929523507551  0.3663606281117811   T   T   T
  0.4946538541840089  0.5552843615168280  0.5786637040152298   T   T   T
  0.5082588760273293  0.4174447902129244  0.3895898657016011   T   T   T
  0.5076645513153762  0.3992219031970374  0.4908899752326638   T   T   T
  0.4437490075371773  0.5787430869433687  0.4326699694692619   T   T   T
  0.4099783641109755  0.5382006516729140  0.4804454384339729   T   T   T
  0.4412025756280776  0.5998295559820757  0.5004213567277075   T   T   T
  0.5432497554032512  0.6075448421323126  0.5019158842520385   T   T   T
  0.5840119641954595  0.5511709830095000  0.4836897683333440   T   T   T
  0.5464485718351684  0.5860208397368576  0.4342966403322202   T   T   T
  0.5559670754016381  0.4106345255985009  0.5954862128388371   T   T   T
  0.5889599001003589  0.4666023928213054  0.5658858762107949   T   T   T
  0.5503098877612473  0.4751412939534665  0.6259504710754251   T   T   T
  0.4148537044975574  0.4536600079188716  0.5629904835949542   T   T   T
  0.4547705596910647  0.4030751967224706  0.5937721187141891   T   T   T
  0.4498245897533653  0.4676220089146352  0.6242802184450784   T   T   T
  0.4982688698243857  0.5442933801910829  0.3757459206089878   T   T   T
  0.5030863373522244  0.4957926758633308  0.3268062189933691   T   T   T
 
  0.00000000E+00  0.00000000E+00  0.00000000E+00
  0.00000000E+00  0.00000000E+00  0.00000000E+00
  0.00000000E+00  0.00000000E+00  0.00000000E+00
  0.00000000E+00  0.00000000E+00  0.00000000E+00
  0.00000000E+00  0.00000000E+00  0.00000000E+00
  0.00000000E+00  0.00000000E+00  0.00000000E+00
  0.00000000E+00  0.00000000E+00  0.00000000E+00
  0.00000000E+00  0.00000000E+00  0.00000000E+00
  0.00000000E+00  0.00000000E+00  0.00000000E+00
  0.00000000E+00  0.00000000E+00  0.00000000E+00
  0.00000000E+00  0.00000000E+00  0.00000000E+00
  0.00000000E+00  0.00000000E+00  0.00000000E+00
  0.00000000E+00  0.00000000E+00  0.00000000E+00
  0.00000000E+00  0.00000000E+00  0.00000000E+00
  0.00000000E+00  0.00000000E+00  0.00000000E+00
  0.00000000E+00  0.00000000E+00  0.00000000E+00
  0.00000000E+00  0.00000000E+00  0.00000000E+00
  0.00000000E+00  0.00000000E+00  0.00000000E+00
  0.00000000E+00  0.00000000E+00  0.00000000E+00
  0.00000000E+00  0.00000000E+00  0.00000000E+00
  0.00000000E+00  0.00000000E+00  0.00000000E+00
  0.00000000E+00  0.00000000E+00  0.00000000E+00
  0.00000000E+00  0.00000000E+00  0.00000000E+00
  0.00000000E+00  0.00000000E+00  0.00000000E+00
  0.00000000E+00  0.00000000E+00  0.00000000E+00
  0.00000000E+00  0.00000000E+00  0.00000000E+00
  0.00000000E+00  0.00000000E+00  0.00000000E+00
  0.00000000E+00  0.00000000E+00  0.00000000E+00
