C H                                     
   1.00000000000000     
    40.0000000000000000    0.0000000000000000    0.0000000000000000
     0.0000000000000000   40.0000000000000000    0.0000000000000000
     0.0000000000000000    0.0000000000000000   40.0000000000000000
   C    H 
     8    10
Selective dynamics
Direct
  0.4703221831936843  0.4683711504889496  0.5007273488226487   T   T   T
  0.5001593989208675  0.4508773745868592  0.5000285081470905   T   T   T
  0.5298876677312926  0.4685562580017377  0.4993819816667412   T   T   T
  0.5301544826338969  0.5047509204843892  0.4997507868048644   T   T   T
  0.5627015619370211  0.5221067456780943  0.4991292594674880   T   T   T
  0.4999480627485370  0.5218843693503841  0.5004082390338667   T   T   T
  0.4698542384434852  0.5045644999503397  0.5007583901825442   T   T   T
  0.4371611876826006  0.5216476285518978  0.5009758773590791   T   T   T
  0.5601526237203696  0.5489607472890028  0.5025008777518313   T   T   T
  0.5793856157398598  0.5116369553415242  0.5181429441822244   T   T   T
  0.5750728668933369  0.5171326221759781  0.4751219611114442   T   T   T
  0.4396178922770142  0.5486865900705428  0.5023112106525250   T   T   T
  0.4219624821126343  0.5124782546246500  0.5218475968295662   T   T   T
  0.4232253191417299  0.5147836018465793  0.4783550497419093   T   T   T
  0.4998774739173977  0.5489639274598861  0.5006124660012043   T   T   T
  0.5536265861891430  0.4555313948380479  0.4986714007761038   T   T   T
  0.5002379208644532  0.4238487669164772  0.4999885801126626   T   T   T
  0.4466524358526976  0.4552171923446629  0.5012885213561977   T   T   T
 
  0.00000000E+00  0.00000000E+00  0.00000000E+00
  0.00000000E+00  0.00000000E+00  0.00000000E+00
  0.00000000E+00  0.00000000E+00  0.00000000E+00
  0.00000000E+00  0.00000000E+00  0.00000000E+00
  0.00000000E+00  0.00000000E+00  0.00000000E+00
  0.00000000E+00  0.00000000E+00  0.00000000E+00
  0.00000000E+00  0.00000000E+00  0.00000000E+00
  0.00000000E+00  0.00000000E+00  0.00000000E+00
  0.00000000E+00  0.00000000E+00  0.00000000E+00
  0.00000000E+00  0.00000000E+00  0.00000000E+00
  0.00000000E+00  0.00000000E+00  0.00000000E+00
  0.00000000E+00  0.00000000E+00  0.00000000E+00
  0.00000000E+00  0.00000000E+00  0.00000000E+00
  0.00000000E+00  0.00000000E+00  0.00000000E+00
  0.00000000E+00  0.00000000E+00  0.00000000E+00
  0.00000000E+00  0.00000000E+00  0.00000000E+00
  0.00000000E+00  0.00000000E+00  0.00000000E+00
  0.00000000E+00  0.00000000E+00  0.00000000E+00
