C H                                     
   1.00000000000000     
    40.0000000000000000    0.0000000000000000    0.0000000000000000
     0.0000000000000000   40.0000000000000000    0.0000000000000000
     0.0000000000000000    0.0000000000000000   40.0000000000000000
   C    H 
    14    12
Selective dynamics
Direct
  0.5600360480213311  0.4795332611255958  0.5169495453936008   T   T   T
  0.5318262177487796  0.4903203307083928  0.4989727937137189   T   T   T
  0.5346135621294934  0.5195157109177941  0.4795318353538818   T   T   T
  0.5647467459900781  0.5369754307973125  0.4776771153044308   T   T   T
  0.5926700389033570  0.5258199550204594  0.4955031299746651   T   T   T
  0.5901605642646643  0.4970467179951612  0.5151896630303909   T   T   T
  0.5000000000000000  0.4711931528706970  0.5000000000000000   T   T   T
  0.5000000000000000  0.4374385928519331  0.4999990000000025   T   T   T
  0.4681737822512204  0.4903203307083928  0.5010272062862811   T   T   T
  0.4399639519786689  0.4795342611256004  0.4830504546063992   T   T   T
  0.4098394357353357  0.4970477179951587  0.4848103369696091   T   T   T
  0.4073299610966430  0.5258209550204569  0.5044968700253349   T   T   T
  0.4352532540099219  0.5369754307973125  0.5223238846955809   T   T   T
  0.4653864378705066  0.5195157109177941  0.5204691646461228   T   T   T
  0.6116881407902284  0.4883878391202003  0.5295231751660268   T   T   T
  0.6161718534267848  0.5395814539136268  0.4942133019705324   T   T   T
  0.5664299003454261  0.5594078294972675  0.4622498550272311   T   T   T
  0.5129370027290534  0.5283832705958531  0.4655534262504659   T   T   T
  0.4768291577969279  0.4232297798305424  0.5019014192077478   T   T   T
  0.5231698422030746  0.4232287798305379  0.4980965807922502   T   T   T
  0.4870629972709466  0.5283822705958556  0.5344475737495316   T   T   T
  0.4335700996545810  0.5594068294972701  0.5377521449727709   T   T   T
  0.3838281465732152  0.5395824539136314  0.5057876980294651   T   T   T
  0.3883118592097716  0.4883888391201978  0.4704758248339758   T   T   T
  0.4419720611419677  0.4574810476164757  0.4671279699156869   T   T   T
  0.5580279388580323  0.4574800476164782  0.5328700300843110   T   T   T
 
  0.00000000E+00  0.00000000E+00  0.00000000E+00
  0.00000000E+00  0.00000000E+00  0.00000000E+00
  0.00000000E+00  0.00000000E+00  0.00000000E+00
  0.00000000E+00  0.00000000E+00  0.00000000E+00
  0.00000000E+00  0.00000000E+00  0.00000000E+00
  0.00000000E+00  0.00000000E+00  0.00000000E+00
  0.00000000E+00  0.00000000E+00  0.00000000E+00
  0.00000000E+00  0.00000000E+00  0.00000000E+00
  0.00000000E+00  0.00000000E+00  0.00000000E+00
  0.00000000E+00  0.00000000E+00  0.00000000E+00
  0.00000000E+00  0.00000000E+00  0.00000000E+00
  0.00000000E+00  0.00000000E+00  0.00000000E+00
  0.00000000E+00  0.00000000E+00  0.00000000E+00
  0.00000000E+00  0.00000000E+00  0.00000000E+00
  0.00000000E+00  0.00000000E+00  0.00000000E+00
  0.00000000E+00  0.00000000E+00  0.00000000E+00
  0.00000000E+00  0.00000000E+00  0.00000000E+00
  0.00000000E+00  0.00000000E+00  0.00000000E+00
  0.00000000E+00  0.00000000E+00  0.00000000E+00
  0.00000000E+00  0.00000000E+00  0.00000000E+00
  0.00000000E+00  0.00000000E+00  0.00000000E+00
  0.00000000E+00  0.00000000E+00  0.00000000E+00
  0.00000000E+00  0.00000000E+00  0.00000000E+00
  0.00000000E+00  0.00000000E+00  0.00000000E+00
  0.00000000E+00  0.00000000E+00  0.00000000E+00
  0.00000000E+00  0.00000000E+00  0.00000000E+00
