!PBE0 def2-SV(p) Opt Freq d3 TightSCF SlowConv RIJCOSX defgrid2
 
%pal
nprocs 4
end
 
%scf
MaxIter 1500
end
 
%maxcore 3000
 

 
* xyz 0 1
C    -1.2003880   -0.0219637    0.0000206 
C    -1.2012480    1.3757800   -0.0000385 
C     0.0000354    2.0634497    0.0000395 
C     1.2012901    1.3757173    0.0000902 
C     1.2003773   -0.0220241    0.0000111 
C    -0.0000243   -0.7286201    0.0000318 
H    -0.0000536   -1.8085474   -0.0000085 
C     2.4276444   -0.7276515   -0.0005951 
N     3.4238546   -1.2957642    0.0005562 
H     2.1408326    1.9067871    0.0001069 
H     0.0000737    3.1419890    0.0000115 
H    -2.1407790    1.9068733   -0.0001390 
C    -2.4276673   -0.7275720    0.0001408 
N    -3.4238837   -1.2956739   -0.0001674
*
