!r2SCANh freq aug-cc-pVTZ d3 TightSCF SlowConv RIJCOSX defgrid2

%pal
nprocs 12
end

%scf
MaxIter 1500
end

%maxcore 5000

!CPCM
%cpcm smd true
SMDsolvent "MeCN"
surfacetype gepol_ses
rsolv 2.19
end 

* xyz 1 2
C           0.87564274177361     -1.20799702683072     -0.00146653255594
C           1.22614603242749      0.17558971195101     -0.00133048864984
C           0.19276087043670      1.14129542151476     -0.00154247196982
C          -1.12960657928505      0.78560612764214     -0.00085240875319
C          -1.46277566948885     -0.60783239257735     -0.00049304393829
C          -0.43628304212902     -1.57408984687415     -0.00113742338558
H          -0.70763783180248     -2.62010703480397     -0.00089723452384
C          -2.87565465169322     -1.03056477506464      0.00084076305118
H          -2.97557462190580     -2.11122648266621     -0.00091902767944
H          -3.39749215089665     -0.61999615767271     -0.86776873006609
H          -3.39414280446653     -0.62360585936721      0.87324911598843
C          -2.20560730237509      1.81204602266883     -0.00020168202243
H          -2.84701976186755      1.70466265204565      0.87626236543232
H          -2.84940142694634      1.70305299129854     -0.87469570122140
H          -1.78673545908337      2.81438225309012     -0.00176927688041
H           0.46892726660048      2.18718561005180     -0.00204448669510
C           2.57015077710908      0.62187649517058      0.00014461047844
C           3.66779527879223     -0.18677793289374      0.00166895743257
H           3.60069426942328     -1.26466750116369      0.00088159521503
H           4.65652772973549      0.24777520563238      0.00359667916294
H           2.72132111865639      1.69422957991308      0.00006596273208
H           1.64520201698522     -1.96426586106450     -0.00205804115165
*
