C F O H                                 
   1.00000000000000     
    40.0000000000000000    0.0000000000000000    0.0000000000000000
     0.0000000000000000   40.0000000000000000    0.0000000000000000
     0.0000000000000000    0.0000000000000000   40.0000000000000000
   C    F    O    H 
     9     3     1     7
Selective dynamics
Direct
  0.5066449961606101  0.5362798626941268  0.5001168308319131   T   T   T
  0.4720017034579526  0.5365160858912736  0.5003022968623073   T   T   T
  0.4548057730282392  0.5062216436833118  0.5005539259156460   T   T   T
  0.4719482256041040  0.4758676617610200  0.5005657326502949   T   T   T
  0.5066480940375498  0.4758789307065793  0.5003447091282864   T   T   T
  0.5242936395174100  0.5061003861191811  0.5000997212519875   T   T   T
  0.5616902125256655  0.5073136697363703  0.4997901961276726   T   T   T
  0.5810063601111073  0.4751400959040792  0.4996005638300025   T   T   T
  0.4174326608641640  0.5056407514939772  0.4999953760592756   T   T   T
  0.4052401143156154  0.4956369507322251  0.4696776197859434   T   T   T
  0.4045310780247134  0.4839087116266761  0.5228076666740941   T   T   T
  0.4035298919552502  0.5358782586335282  0.5063853111169998   T   T   T
  0.5761290743485638  0.5344289070632828  0.4996762932121704   T   T   T
  0.5749737770984389  0.4601691928499270  0.5216560328721751   T   T   T
  0.5744998215604877  0.4601191777046897  0.4777131525361658   T   T   T
  0.6076253744086686  0.4807050074331065  0.4993066069274984   T   T   T
  0.5197505235230090  0.4522069938475705  0.5003543632733385   T   T   T
  0.4583141492333767  0.4524580182763710  0.5007730832772916   T   T   T
  0.4584853740085685  0.5599655397160117  0.5003160011882825   T   T   T
  0.5204491562164986  0.5595641541267135  0.4999645164786544   T   T   T
 
  0.00000000E+00  0.00000000E+00  0.00000000E+00
  0.00000000E+00  0.00000000E+00  0.00000000E+00
  0.00000000E+00  0.00000000E+00  0.00000000E+00
  0.00000000E+00  0.00000000E+00  0.00000000E+00
  0.00000000E+00  0.00000000E+00  0.00000000E+00
  0.00000000E+00  0.00000000E+00  0.00000000E+00
  0.00000000E+00  0.00000000E+00  0.00000000E+00
  0.00000000E+00  0.00000000E+00  0.00000000E+00
  0.00000000E+00  0.00000000E+00  0.00000000E+00
  0.00000000E+00  0.00000000E+00  0.00000000E+00
  0.00000000E+00  0.00000000E+00  0.00000000E+00
  0.00000000E+00  0.00000000E+00  0.00000000E+00
  0.00000000E+00  0.00000000E+00  0.00000000E+00
  0.00000000E+00  0.00000000E+00  0.00000000E+00
  0.00000000E+00  0.00000000E+00  0.00000000E+00
  0.00000000E+00  0.00000000E+00  0.00000000E+00
  0.00000000E+00  0.00000000E+00  0.00000000E+00
  0.00000000E+00  0.00000000E+00  0.00000000E+00
  0.00000000E+00  0.00000000E+00  0.00000000E+00
  0.00000000E+00  0.00000000E+00  0.00000000E+00
