C Cl O H                                
   1.00000000000000     
    40.0000000000000000    0.0000000000000000    0.0000000000000000
     0.0000000000000000   40.0000000000000000    0.0000000000000000
     0.0000000000000000    0.0000000000000000   40.0000000000000000
   C    Cl   O    H 
     7     1     1     5
Selective dynamics
Direct
  0.4966948044027321  0.4686907795688142  0.4999849734040440   T   T   T
  0.4629101834425949  0.4763411705294862  0.4999825884027910   T   T   T
  0.4516873959775442  0.5097430709773186  0.4999968053903834   T   T   T
  0.4758109743456354  0.5354743742451176  0.5000125821479611   T   T   T
  0.5097614626651854  0.5284796017276697  0.5000123095180864   T   T   T
  0.5216841216517170  0.4946716451244013  0.5000019282802108   T   T   T
  0.5556530393144440  0.4845670818868231  0.5000035904051260   T   T   T
  0.5869270275808198  0.5210404819540112  0.5000150171603959   T   T   T
  0.5686446903729103  0.4563497311413523  0.4999971341500959   T   T   T
  0.5277909239373627  0.5488755741212892  0.5000322564726696   T   T   T
  0.4677114336513846  0.5615453983101242  0.5000265398207556   T   T   T
  0.4250764660270241  0.5155476235992079  0.4999934469335349   T   T   T
  0.4447357337440134  0.4559633917810171  0.4999683764465493   T   T   T
  0.5049107428866272  0.4427110750333647  0.4999724514673893   T   T   T
 
  0.00000000E+00  0.00000000E+00  0.00000000E+00
  0.00000000E+00  0.00000000E+00  0.00000000E+00
  0.00000000E+00  0.00000000E+00  0.00000000E+00
  0.00000000E+00  0.00000000E+00  0.00000000E+00
  0.00000000E+00  0.00000000E+00  0.00000000E+00
  0.00000000E+00  0.00000000E+00  0.00000000E+00
  0.00000000E+00  0.00000000E+00  0.00000000E+00
  0.00000000E+00  0.00000000E+00  0.00000000E+00
  0.00000000E+00  0.00000000E+00  0.00000000E+00
  0.00000000E+00  0.00000000E+00  0.00000000E+00
  0.00000000E+00  0.00000000E+00  0.00000000E+00
  0.00000000E+00  0.00000000E+00  0.00000000E+00
  0.00000000E+00  0.00000000E+00  0.00000000E+00
  0.00000000E+00  0.00000000E+00  0.00000000E+00
