C H                                     
   1.00000000000000     
    40.0000000000000000    0.0000000000000000    0.0000000000000000
     0.0000000000000000   40.0000000000000000    0.0000000000000000
     0.0000000000000000    0.0000000000000000   40.0000000000000000
   C    H 
     8     6
Selective dynamics
Direct
  0.5339046942605714  0.4692419275832244  0.4999997367037897   T   T   T
  0.5511593556727852  0.5000015757402331  0.5000005760288228   T   T   T
  0.5339018907118408  0.5307586935122049  0.4999996591664885   T   T   T
  0.4996964845733703  0.5310972433654773  0.4999971098667285   T   T   T
  0.4819418244074600  0.4999979746115242  0.4999959503946684   T   T   T
  0.4996985145686872  0.4689010748432599  0.4999979517625652   T   T   T
  0.4474272706893614  0.4999973703441106  0.4999974328372626   T   T   T
  0.4168627385714521  0.4999997554011792  0.5000035751500285   T   T   T
  0.4856841164031157  0.4457746454232591  0.4999976568281810   T   T   T
  0.3901374525513558  0.5000025849827245  0.5000080411177389   T   T   T
  0.4856803382989867  0.5542219859582933  0.4999977365477414   T   T   T
  0.5478421019292431  0.5539242726428339  0.5000013218241699   T   T   T
  0.5782173817354057  0.5000020288581312  0.5000020627036204   T   T   T
  0.5478458356263801  0.4460778667335327  0.5000011890681936   T   T   T
 
  0.00000000E+00  0.00000000E+00  0.00000000E+00
  0.00000000E+00  0.00000000E+00  0.00000000E+00
  0.00000000E+00  0.00000000E+00  0.00000000E+00
  0.00000000E+00  0.00000000E+00  0.00000000E+00
  0.00000000E+00  0.00000000E+00  0.00000000E+00
  0.00000000E+00  0.00000000E+00  0.00000000E+00
  0.00000000E+00  0.00000000E+00  0.00000000E+00
  0.00000000E+00  0.00000000E+00  0.00000000E+00
  0.00000000E+00  0.00000000E+00  0.00000000E+00
  0.00000000E+00  0.00000000E+00  0.00000000E+00
  0.00000000E+00  0.00000000E+00  0.00000000E+00
  0.00000000E+00  0.00000000E+00  0.00000000E+00
  0.00000000E+00  0.00000000E+00  0.00000000E+00
  0.00000000E+00  0.00000000E+00  0.00000000E+00
