C O H                                   
   1.00000000000000     
    40.0000000000000000    0.0000000000000000    0.0000000000000000
     0.0000000000000000   40.0000000000000000    0.0000000000000000
     0.0000000000000000    0.0000000000000000   40.0000000000000000
   C    O    H 
    10     1    12
Selective dynamics
Direct
  0.5032414650953053  0.5307933241065449  0.4999981502025019   T   T   T
  0.4694472284176038  0.5364030794613411  0.4999975855455902   T   T   T
  0.4467804508650983  0.5088590515491700  0.4999982638371084   T   T   T
  0.4588886640260410  0.4754723478768496  0.5000009352064121   T   T   T
  0.4928740036225029  0.4702539309989001  0.5000026492354485   T   T   T
  0.5161569064082024  0.4973943018408308  0.5000009175099952   T   T   T
  0.5509192378941489  0.4894604201459707  0.5000023707143871   T   T   T
  0.5770764359728311  0.5118531096941721  0.5000001828709472   T   T   T
  0.6125586752103488  0.5017551604345186  0.5000024508685100   T   T   T
  0.3892283381314594  0.4909827427620165  0.4999966819980977   T   T   T
  0.4145548949526009  0.5170648039423998  0.4999973265747154   T   T   T
  0.6254301243246573  0.5126598029965393  0.5218574037759017   T   T   T
  0.6254290422182712  0.5126521386232092  0.4781429310827515   T   T   T
  0.6159439583405415  0.4745579228549818  0.5000066882571068   T   T   T
  0.5719741593419039  0.5386993372376414  0.4999966825761674   T   T   T
  0.5571369225236846  0.4628314249278567  0.5000064523812219   T   T   T
  0.5026046285244993  0.4447900972686008  0.5000048865058209   T   T   T
  0.4417795691970596  0.4543316802011764  0.5000020078283182   T   T   T
  0.3916421310966781  0.4756066620898237  0.5225790941412936   T   T   T
  0.3916457720470592  0.4756056366394439  0.4774150773967867   T   T   T
  0.3653861344971162  0.5042811969512231  0.4999940809998458   T   T   T
  0.4590997510649436  0.5616032166561212  0.4999975627118833   T   T   T
  0.5202035062274583  0.5520886107406817  0.4999986177791778   T   T   T
 
  0.00000000E+00  0.00000000E+00  0.00000000E+00
  0.00000000E+00  0.00000000E+00  0.00000000E+00
  0.00000000E+00  0.00000000E+00  0.00000000E+00
  0.00000000E+00  0.00000000E+00  0.00000000E+00
  0.00000000E+00  0.00000000E+00  0.00000000E+00
  0.00000000E+00  0.00000000E+00  0.00000000E+00
  0.00000000E+00  0.00000000E+00  0.00000000E+00
  0.00000000E+00  0.00000000E+00  0.00000000E+00
  0.00000000E+00  0.00000000E+00  0.00000000E+00
  0.00000000E+00  0.00000000E+00  0.00000000E+00
  0.00000000E+00  0.00000000E+00  0.00000000E+00
  0.00000000E+00  0.00000000E+00  0.00000000E+00
  0.00000000E+00  0.00000000E+00  0.00000000E+00
  0.00000000E+00  0.00000000E+00  0.00000000E+00
  0.00000000E+00  0.00000000E+00  0.00000000E+00
  0.00000000E+00  0.00000000E+00  0.00000000E+00
  0.00000000E+00  0.00000000E+00  0.00000000E+00
  0.00000000E+00  0.00000000E+00  0.00000000E+00
  0.00000000E+00  0.00000000E+00  0.00000000E+00
  0.00000000E+00  0.00000000E+00  0.00000000E+00
  0.00000000E+00  0.00000000E+00  0.00000000E+00
  0.00000000E+00  0.00000000E+00  0.00000000E+00
  0.00000000E+00  0.00000000E+00  0.00000000E+00
