C O S H                                 
   1.00000000000000     
    40.0000000000000000    0.0000000000000000    0.0000000000000000
     0.0000000000000000   40.0000000000000000    0.0000000000000000
     0.0000000000000000    0.0000000000000000   40.0000000000000000
   C    O    S    H 
     7     1     1     8
Selective dynamics
Direct
  0.5511448011178157  0.5016326232150532  0.4969565649150407   T   T   T
  0.5360495075776778  0.5336915630678050  0.4983183007822229   T   T   T
  0.5022400029578427  0.5362812167698924  0.5007359779295948   T   T   T
  0.4821502659083124  0.5070692658002544  0.5017350786260512   T   T   T
  0.4970022386904295  0.4750212579309100  0.5008325863551697   T   T   T
  0.5309474028180986  0.4724939459610807  0.4985206531976586   T   T   T
  0.4268651959196116  0.4847243377201557  0.5037271713245656   T   T   T
  0.4498047936928878  0.5123283880877881  0.5034343167450847   T   T   T
  0.5929288799882805  0.4960342983632441  0.4933122824031865   T   T   T
  0.5426691393020617  0.4480970763823079  0.4977506596845923   T   T   T
  0.4818740626334549  0.4526708729145771  0.5018947315113840   T   T   T
  0.4022074321771562  0.4959955140941034  0.5046546785003553   T   T   T
  0.4297293844424649  0.4700288797744874  0.4809698328206057   T   T   T
  0.4310787562529099  0.4693270527832021  0.5258031949593136   T   T   T
  0.4899769705726321  0.5603727232697182  0.5017663563878244   T   T   T
  0.5514473536112531  0.5559152913053390  0.4973634635168619   T   T   T
  0.6018818123370729  0.5283166925601076  0.4922221503404861   T   T   T
 
  0.00000000E+00  0.00000000E+00  0.00000000E+00
  0.00000000E+00  0.00000000E+00  0.00000000E+00
  0.00000000E+00  0.00000000E+00  0.00000000E+00
  0.00000000E+00  0.00000000E+00  0.00000000E+00
  0.00000000E+00  0.00000000E+00  0.00000000E+00
  0.00000000E+00  0.00000000E+00  0.00000000E+00
  0.00000000E+00  0.00000000E+00  0.00000000E+00
  0.00000000E+00  0.00000000E+00  0.00000000E+00
  0.00000000E+00  0.00000000E+00  0.00000000E+00
  0.00000000E+00  0.00000000E+00  0.00000000E+00
  0.00000000E+00  0.00000000E+00  0.00000000E+00
  0.00000000E+00  0.00000000E+00  0.00000000E+00
  0.00000000E+00  0.00000000E+00  0.00000000E+00
  0.00000000E+00  0.00000000E+00  0.00000000E+00
  0.00000000E+00  0.00000000E+00  0.00000000E+00
  0.00000000E+00  0.00000000E+00  0.00000000E+00
  0.00000000E+00  0.00000000E+00  0.00000000E+00
