C O H                                   
   1.00000000000000     
    40.0000000000000000    0.0000000000000000    0.0000000000000000
     0.0000000000000000   40.0000000000000000    0.0000000000000000
     0.0000000000000000    0.0000000000000000   40.0000000000000000
   C    O    H 
    14     1    12
Selective dynamics
Direct
  0.4566775765745277  0.5339496298901452  0.4917908334827032   T   T   T
  0.4384494574307496  0.5047348386740325  0.4989381997740665   T   T   T
  0.4562150863589736  0.4752476294268462  0.5060106117483940   T   T   T
  0.4910211050019839  0.4749980203565798  0.5059379978998138   T   T   T
  0.5093488043815526  0.5041974989714006  0.4989023563565027   T   T   T
  0.4913815645785533  0.5337082577461345  0.4918375313746637   T   T   T
  0.5463329078474644  0.5039950917004319  0.4989085066366741   T   T   T
  0.5642848558733675  0.4761876267640659  0.4869694127681683   T   T   T
  0.5991642198174034  0.4761327059509171  0.4868365211843937   T   T   T
  0.6168608978336749  0.5037819400147328  0.4988110547134568   T   T   T
  0.5993628367166863  0.5315440721812124  0.5108286219251070   T   T   T
  0.5644934695183963  0.5317030333082116  0.5107830512141973   T   T   T
  0.4011197541294678  0.5061387040826659  0.4987909912534647   T   T   T
  0.3817176277299268  0.4746021457827467  0.5066472030781881   T   T   T
  0.3863320620993704  0.5324942125419767  0.4924113473341194   T   T   T
  0.5049653708171959  0.5565349383013540  0.4856830685509621   T   T   T
  0.5511225857623003  0.5533165976355505  0.5206825538440398   T   T   T
  0.6129393051724037  0.5531579950770009  0.5204318753955945   T   T   T
  0.6441264301858070  0.5037215551946446  0.4987524763013766   T   T   T
  0.6125955354596542  0.4544840458862112  0.4771077384086126   T   T   T
  0.5507574299617204  0.4546990051620341  0.4770039939715502   T   T   T
  0.5042324524771971  0.4519523101813689  0.5120853633044149   T   T   T
  0.4428901217365038  0.4522128999716273  0.5119072282255459   T   T   T
  0.3549167404061535  0.4800136388121388  0.5054994454573034   T   T   T
  0.3877575911230977  0.4546250006378330  0.4887286693470969   T   T   T
  0.3880544003625772  0.4651198002362094  0.5316759358992940   T   T   T
  0.4428798106433405  0.5567478055119324  0.4860384105502931   T   T   T
 
  0.00000000E+00  0.00000000E+00  0.00000000E+00
  0.00000000E+00  0.00000000E+00  0.00000000E+00
  0.00000000E+00  0.00000000E+00  0.00000000E+00
  0.00000000E+00  0.00000000E+00  0.00000000E+00
  0.00000000E+00  0.00000000E+00  0.00000000E+00
  0.00000000E+00  0.00000000E+00  0.00000000E+00
  0.00000000E+00  0.00000000E+00  0.00000000E+00
  0.00000000E+00  0.00000000E+00  0.00000000E+00
  0.00000000E+00  0.00000000E+00  0.00000000E+00
  0.00000000E+00  0.00000000E+00  0.00000000E+00
  0.00000000E+00  0.00000000E+00  0.00000000E+00
  0.00000000E+00  0.00000000E+00  0.00000000E+00
  0.00000000E+00  0.00000000E+00  0.00000000E+00
  0.00000000E+00  0.00000000E+00  0.00000000E+00
  0.00000000E+00  0.00000000E+00  0.00000000E+00
  0.00000000E+00  0.00000000E+00  0.00000000E+00
  0.00000000E+00  0.00000000E+00  0.00000000E+00
  0.00000000E+00  0.00000000E+00  0.00000000E+00
  0.00000000E+00  0.00000000E+00  0.00000000E+00
  0.00000000E+00  0.00000000E+00  0.00000000E+00
  0.00000000E+00  0.00000000E+00  0.00000000E+00
  0.00000000E+00  0.00000000E+00  0.00000000E+00
  0.00000000E+00  0.00000000E+00  0.00000000E+00
  0.00000000E+00  0.00000000E+00  0.00000000E+00
  0.00000000E+00  0.00000000E+00  0.00000000E+00
  0.00000000E+00  0.00000000E+00  0.00000000E+00
  0.00000000E+00  0.00000000E+00  0.00000000E+00
