C O H                                   
   1.00000000000000     
    40.0000000000000000    0.0000000000000000    0.0000000000000000
     0.0000000000000000   40.0000000000000000    0.0000000000000000
     0.0000000000000000    0.0000000000000000   40.0000000000000000
   C    O    H 
    10     2    10
Selective dynamics
Direct
  0.4937729949876587  0.4571420226424864  0.5014035458366735   T   T   T
  0.4587455767709659  0.4540615002049326  0.5006751526443224   T   T   T
  0.4406056705381842  0.4834465712097205  0.4997704511513988   T   T   T
  0.4564496926426780  0.5146235949835657  0.4998013557554979   T   T   T
  0.4907037304171949  0.5179831177914466  0.5006647926873226   T   T   T
  0.5101728627087641  0.4882753770664056  0.5013851070329006   T   T   T
  0.5468023233453949  0.4889147801034840  0.5020632553466243   T   T   T
  0.5669345948822309  0.5158910574383067  0.5016227794575830   T   T   T
  0.6042717083190611  0.5145230793663388  0.5023961353270862   T   T   T
  0.4012482994824759  0.5229830599035513  0.4944268616667508   T   T   T
  0.4326896483560152  0.5396896672017317  0.5001980992096521   T   T   T
  0.4063722148717165  0.4876929668448060  0.5000987571552323   T   T   T
  0.6134826673123472  0.4886679471659405  0.5033240307772697   T   T   T
  0.6151753192584608  0.5267364772072421  0.4802342831302854   T   T   T
  0.6143105894746922  0.5279994567814854  0.5242321623078335   T   T   T
  0.5559661072371793  0.5409525404978652  0.5006165971940278   T   T   T
  0.5586583174444041  0.4642197753176905  0.5029933336283552   T   T   T
  0.5021879439475825  0.5426699552789814  0.5009192223628639   T   T   T
  0.3934570837330620  0.5269625298233290  0.4682376768420556   T   T   T
  0.3825496452554714  0.5324197248652114  0.5121449582772662   T   T   T
  0.4465579854631501  0.4297108318774079  0.5008505720036852   T   T   T
  0.5088860235512934  0.4344329664280795  0.5019398702053154   T   T   T
 
  0.00000000E+00  0.00000000E+00  0.00000000E+00
  0.00000000E+00  0.00000000E+00  0.00000000E+00
  0.00000000E+00  0.00000000E+00  0.00000000E+00
  0.00000000E+00  0.00000000E+00  0.00000000E+00
  0.00000000E+00  0.00000000E+00  0.00000000E+00
  0.00000000E+00  0.00000000E+00  0.00000000E+00
  0.00000000E+00  0.00000000E+00  0.00000000E+00
  0.00000000E+00  0.00000000E+00  0.00000000E+00
  0.00000000E+00  0.00000000E+00  0.00000000E+00
  0.00000000E+00  0.00000000E+00  0.00000000E+00
  0.00000000E+00  0.00000000E+00  0.00000000E+00
  0.00000000E+00  0.00000000E+00  0.00000000E+00
  0.00000000E+00  0.00000000E+00  0.00000000E+00
  0.00000000E+00  0.00000000E+00  0.00000000E+00
  0.00000000E+00  0.00000000E+00  0.00000000E+00
  0.00000000E+00  0.00000000E+00  0.00000000E+00
  0.00000000E+00  0.00000000E+00  0.00000000E+00
  0.00000000E+00  0.00000000E+00  0.00000000E+00
  0.00000000E+00  0.00000000E+00  0.00000000E+00
  0.00000000E+00  0.00000000E+00  0.00000000E+00
  0.00000000E+00  0.00000000E+00  0.00000000E+00
  0.00000000E+00  0.00000000E+00  0.00000000E+00
