C H                                     
   1.00000000000000     
    40.0000000000000000    0.0000000000000000    0.0000000000000000
     0.0000000000000000   40.0000000000000000    0.0000000000000000
     0.0000000000000000    0.0000000000000000   40.0000000000000000
   C    H 
     7     8
Selective dynamics
Direct
  0.5515073988745485  0.4999950552806021  0.5001449893482841   T   T   T
  0.5340759934241738  0.4691049634726677  0.4999914679385741   T   T   T
  0.4999665659329436  0.4690518628207556  0.4997388678797138   T   T   T
  0.4818976139780490  0.5000057291132113  0.4993812805305504   T   T   T
  0.4452477277101361  0.5000077129063865  0.4993368034903508   T   T   T
  0.4999738660426432  0.5309566840437557  0.4997415229120366   T   T   T
  0.5340839239947285  0.5308907532852875  0.4999959719841660   T   T   T
  0.4348623670389722  0.5225755108180343  0.4881737200811689   T   T   T
  0.4348705085824963  0.4774997644087098  0.4880441241382815   T   T   T
  0.4368843577431131  0.4999187317745840  0.5256554185567659   T   T   T
  0.5480236185257913  0.5540632010622271  0.5000509695011958   T   T   T
  0.4860209310527788  0.5541510464604665  0.4996297465857489   T   T   T
  0.4860065389349285  0.4458595946967588  0.4996237787703626   T   T   T
  0.5480097929316604  0.4459283157628353  0.5000434848321698   T   T   T
  0.5785707952330384  0.4999920740937652  0.5004458534506006   T   T   T
 
  0.00000000E+00  0.00000000E+00  0.00000000E+00
  0.00000000E+00  0.00000000E+00  0.00000000E+00
  0.00000000E+00  0.00000000E+00  0.00000000E+00
  0.00000000E+00  0.00000000E+00  0.00000000E+00
  0.00000000E+00  0.00000000E+00  0.00000000E+00
  0.00000000E+00  0.00000000E+00  0.00000000E+00
  0.00000000E+00  0.00000000E+00  0.00000000E+00
  0.00000000E+00  0.00000000E+00  0.00000000E+00
  0.00000000E+00  0.00000000E+00  0.00000000E+00
  0.00000000E+00  0.00000000E+00  0.00000000E+00
  0.00000000E+00  0.00000000E+00  0.00000000E+00
  0.00000000E+00  0.00000000E+00  0.00000000E+00
  0.00000000E+00  0.00000000E+00  0.00000000E+00
  0.00000000E+00  0.00000000E+00  0.00000000E+00
  0.00000000E+00  0.00000000E+00  0.00000000E+00
