C N H                                   
   1.00000000000000     
    25.0000000000000000    0.0000000000000000    0.0000000000000000
     0.0000000000000000   25.0000000000000000    0.0000000000000000
     0.0000000000000000    0.0000000000000000   25.0000000000000000
   C    N    H 
    10     2     8
Selective dynamics
Direct
  0.4948837673896074  0.5011525485396158  0.3582254171381619   T   T   T
  0.4922843387801601  0.4974918938504477  0.5286324992665954   T   T   T
  0.5380865901702211  0.5085617748939550  0.5613954498421760   T   T   T
  0.5345639642346673  0.5067685731665514  0.6165634325117129   T   T   T
  0.4849973917411515  0.4937346845268895  0.6409382302346075   T   T   T
  0.4421011365064276  0.4833603057604051  0.6065022517757678   T   T   T
  0.4942834970041813  0.4990112538560126  0.4707994170412693   T   T   T
  0.5421777640541938  0.5119641336560475  0.4419317236672744   T   T   T
  0.5425542173418164  0.5130454825119818  0.3866513400521269   T   T   T
  0.4497528276089443  0.4888880539786282  0.3889891000949820   T   T   T
  0.4438911405257648  0.4847238113602881  0.5530730716392300   T   T   T
  0.4477886092412167  0.4874486359960994  0.4424073368757069   T   T   T
  0.5764517873673339  0.5185555782493798  0.5431473407086141   T   T   T
  0.5697681647835947  0.5152627627072824  0.6410174098768771   T   T   T
  0.4800488080195190  0.4917589990477000  0.6842139122964457   T   T   T
  0.4030136376981361  0.4730961662032672  0.6237280857952845   T   T   T
  0.5790596998478627  0.5212328631964968  0.4633446274099259   T   T   T
  0.5793084172559796  0.5230179952676743  0.3652119515327104   T   T   T
  0.4929677156669034  0.5014365053063558  0.3146687531926335   T   T   T
  0.4120155247623213  0.4794869779249381  0.3685576490479008   T   T   T
 
  0.00000000E+00  0.00000000E+00  0.00000000E+00
  0.00000000E+00  0.00000000E+00  0.00000000E+00
  0.00000000E+00  0.00000000E+00  0.00000000E+00
  0.00000000E+00  0.00000000E+00  0.00000000E+00
  0.00000000E+00  0.00000000E+00  0.00000000E+00
  0.00000000E+00  0.00000000E+00  0.00000000E+00
  0.00000000E+00  0.00000000E+00  0.00000000E+00
  0.00000000E+00  0.00000000E+00  0.00000000E+00
  0.00000000E+00  0.00000000E+00  0.00000000E+00
  0.00000000E+00  0.00000000E+00  0.00000000E+00
  0.00000000E+00  0.00000000E+00  0.00000000E+00
  0.00000000E+00  0.00000000E+00  0.00000000E+00
  0.00000000E+00  0.00000000E+00  0.00000000E+00
  0.00000000E+00  0.00000000E+00  0.00000000E+00
  0.00000000E+00  0.00000000E+00  0.00000000E+00
  0.00000000E+00  0.00000000E+00  0.00000000E+00
  0.00000000E+00  0.00000000E+00  0.00000000E+00
  0.00000000E+00  0.00000000E+00  0.00000000E+00
  0.00000000E+00  0.00000000E+00  0.00000000E+00
  0.00000000E+00  0.00000000E+00  0.00000000E+00
