!PBE0 aug-cc-pVTZ d3 TightSCF SlowConv RIJCOSX defgrid2
 
%pal
nprocs 4
end
 
%scf
MaxIter 1500
end
 
%maxcore 3000
 
!CPCM
%cpcm smd true
SMDsolvent "MeCN"
surfacetype gepol_ses
rsolv 2.19
end 
 
* xyz 1 2
C           1.71497106575748      1.06171932835084     -0.03514469304606
C           0.56719485465527      1.82392831640831     -0.00294767414977
C          -0.68893058329112      1.20760587034953      0.00674165425173
C          -0.80034038219193     -0.22800805453168     -0.01673661650706
C           0.34844024659380     -1.00330914690348     -0.04917310869374
C           1.61061604456188     -0.38138433792306     -0.05904556326935
N           2.73628401268176     -1.09580230581758     -0.09073600890504
H           2.71545111037900     -2.11343777495485     -0.10881829621903
H           3.64963295510932     -0.64805903858531     -0.09811724471076
H           0.25123309236129     -2.09096960143506     -0.06695996926436
O          -1.95374878515058     -0.85587592591482     -0.00850993427148
C          -3.19266872724087     -0.16172631263894      0.01967853662734
H          -3.96658303938529     -0.94029601988636      0.01614088330526
H          -3.30896028056596      0.47212649064151     -0.87574217138754
H          -3.28534792940125      0.44030899731552      0.93950878924919
H          -1.58838328810020      1.82581855641198      0.03268809937411
H           0.63303154865974      2.91458072514130      0.01531465253765
H           2.70276038456766      1.53066783397213     -0.04298803492109
*
