C H                                     
   1.00000000000000     
    40.0000000000000000    0.0000000000000000    0.0000000000000000
     0.0000000000000000   40.0000000000000000    0.0000000000000000
     0.0000000000000000    0.0000000000000000   40.0000000000000000
   C    H 
     6     6
Selective dynamics
Direct
  0.4692775451754088  0.5167280353573176  0.5000000000000000   T   T   T
  0.4991242613374780  0.5349731986727093  0.5000000000000000   T   T   T
  0.5298457132907117  0.5182414272984630  0.5000000000000000   T   T   T
  0.5307224548245912  0.4832719646426824  0.5000000000000000   T   T   T
  0.5008757386625220  0.4650268013272907  0.5000000000000000   T   T   T
  0.4701542867092883  0.4817585727015370  0.5000000000000000   T   T   T
  0.4468794117796406  0.4675301148538793  0.5000000000000000   T   T   T
  0.5015599584754682  0.4377622807643746  0.5000000000000000   T   T   T
  0.5546792191579542  0.4702326994921293  0.4999990000000025   T   T   T
  0.5531205882203665  0.5324698851461207  0.5000000000000000   T   T   T
  0.4984400415245389  0.5622377192356254  0.5000000000000000   T   T   T
  0.4453207808420458  0.5297673005078778  0.5000000000000000   T   T   T
 
  0.00000000E+00  0.00000000E+00  0.00000000E+00
  0.00000000E+00  0.00000000E+00  0.00000000E+00
  0.00000000E+00  0.00000000E+00  0.00000000E+00
  0.00000000E+00  0.00000000E+00  0.00000000E+00
  0.00000000E+00  0.00000000E+00  0.00000000E+00
  0.00000000E+00  0.00000000E+00  0.00000000E+00
  0.00000000E+00  0.00000000E+00  0.00000000E+00
  0.00000000E+00  0.00000000E+00  0.00000000E+00
  0.00000000E+00  0.00000000E+00  0.00000000E+00
  0.00000000E+00  0.00000000E+00  0.00000000E+00
  0.00000000E+00  0.00000000E+00  0.00000000E+00
  0.00000000E+00  0.00000000E+00  0.00000000E+00
