C O H                                   
   1.00000000000000     
    40.0000000000000000    0.0000000000000000    0.0000000000000000
     0.0000000000000000   40.0000000000000000    0.0000000000000000
     0.0000000000000000    0.0000000000000000   40.0000000000000000
   C    O    H 
     9     1     8
Selective dynamics
Direct
  0.4881024599746631  0.4778726817465458  0.4999908157649535   T   T   T
  0.4735476475388914  0.5095484560429282  0.4999935994199750   T   T   T
  0.4938630981215892  0.5380002338832038  0.4999912274126351   T   T   T
  0.5281732948365631  0.5348243414152198  0.4999896339851107   T   T   T
  0.5432199327834348  0.5031349463215627  0.4999897324303077   T   T   T
  0.5226497511547438  0.4749138865466550  0.4999862665846039   T   T   T
  0.5786504315427806  0.4999018719852665  0.5000025023737017   T   T   T
  0.6086776046755817  0.4972548789485634  0.5000229135190530   T   T   T
  0.4182424240941036  0.4873785471673909  0.5000088485776977   T   T   T
  0.4402635886921581  0.5152298351765003  0.5000011795691756   T   T   T
  0.5338682432258207  0.4502586647801128  0.4999861109084032   T   T   T
  0.6352386242190019  0.4948798126148485  0.5000303428073485   T   T   T
  0.5437200810635241  0.5570070629910463  0.4999903655058076   T   T   T
  0.4822344105566362  0.5624644014025040  0.4999950460679942   T   T   T
  0.3931345209653287  0.4977983224625183  0.5000160546101545   T   T   T
  0.4217381576221661  0.4720201238197355  0.4776833861589840   T   T   T
  0.4217523474505387  0.4720192880713410  0.5223319907553448   T   T   T
  0.4729223814824912  0.4554926446240572  0.4999899835487423   T   T   T
 
  0.00000000E+00  0.00000000E+00  0.00000000E+00
  0.00000000E+00  0.00000000E+00  0.00000000E+00
  0.00000000E+00  0.00000000E+00  0.00000000E+00
  0.00000000E+00  0.00000000E+00  0.00000000E+00
  0.00000000E+00  0.00000000E+00  0.00000000E+00
  0.00000000E+00  0.00000000E+00  0.00000000E+00
  0.00000000E+00  0.00000000E+00  0.00000000E+00
  0.00000000E+00  0.00000000E+00  0.00000000E+00
  0.00000000E+00  0.00000000E+00  0.00000000E+00
  0.00000000E+00  0.00000000E+00  0.00000000E+00
  0.00000000E+00  0.00000000E+00  0.00000000E+00
  0.00000000E+00  0.00000000E+00  0.00000000E+00
  0.00000000E+00  0.00000000E+00  0.00000000E+00
  0.00000000E+00  0.00000000E+00  0.00000000E+00
  0.00000000E+00  0.00000000E+00  0.00000000E+00
  0.00000000E+00  0.00000000E+00  0.00000000E+00
  0.00000000E+00  0.00000000E+00  0.00000000E+00
  0.00000000E+00  0.00000000E+00  0.00000000E+00
