C O H                                   
   1.00000000000000     
    40.0000000000000000    0.0000000000000000    0.0000000000000000
     0.0000000000000000   40.0000000000000000    0.0000000000000000
     0.0000000000000000    0.0000000000000000   40.0000000000000000
   C    O    H 
    10     2    10
Selective dynamics
Direct
  0.4934684028187452  0.4571164790612154  0.5020647128264160   T   T   T
  0.4590720676892676  0.4537002997219474  0.5004597149927892   T   T   T
  0.4411158174241257  0.4835459934138329  0.4985010178906939   T   T   T
  0.4570983921882559  0.5153792704812362  0.4984051899908690   T   T   T
  0.4911756686825881  0.5189770958308751  0.4999883922142966   T   T   T
  0.5101747308799314  0.4890472334240945  0.5017163907683775   T   T   T
  0.5461281246999118  0.4885201935477456  0.5028208011592962   T   T   T
  0.5667690514597039  0.5157540149501668  0.5020895375514477   T   T   T
  0.6037037170108749  0.5138324212741014  0.5024490883247642   T   T   T
  0.4014572777767292  0.5231331531443336  0.4948049974100612   T   T   T
  0.4334846119604998  0.5395644074623579  0.4964935233492983   T   T   T
  0.4079896230355952  0.4874146659988927  0.4965477699189041   T   T   T
  0.6130242606525192  0.4880598956306827  0.5032228258602169   T   T   T
  0.6139689376848595  0.5265993278295639  0.4802444875098821   T   T   T
  0.6137328636878332  0.5278290770216596  0.5240120270335943   T   T   T
  0.5560423821045632  0.5408849577675419  0.5010161469855565   T   T   T
  0.5576495167759803  0.4637566868598209  0.5040113815939824   T   T   T
  0.5026469249456419  0.5436245565256241  0.4997458643066345   T   T   T
  0.3894892303298150  0.5286780592995955  0.4707571029547877   T   T   T
  0.3861845973177035  0.5303452224818205  0.5163878855553390   T   T   T
  0.4466834254657106  0.4294917207973081  0.5006195010654864   T   T   T
  0.5089413754091268  0.4347442674755941  0.5036406407373076   T   T   T
 
  0.00000000E+00  0.00000000E+00  0.00000000E+00
  0.00000000E+00  0.00000000E+00  0.00000000E+00
  0.00000000E+00  0.00000000E+00  0.00000000E+00
  0.00000000E+00  0.00000000E+00  0.00000000E+00
  0.00000000E+00  0.00000000E+00  0.00000000E+00
  0.00000000E+00  0.00000000E+00  0.00000000E+00
  0.00000000E+00  0.00000000E+00  0.00000000E+00
  0.00000000E+00  0.00000000E+00  0.00000000E+00
  0.00000000E+00  0.00000000E+00  0.00000000E+00
  0.00000000E+00  0.00000000E+00  0.00000000E+00
  0.00000000E+00  0.00000000E+00  0.00000000E+00
  0.00000000E+00  0.00000000E+00  0.00000000E+00
  0.00000000E+00  0.00000000E+00  0.00000000E+00
  0.00000000E+00  0.00000000E+00  0.00000000E+00
  0.00000000E+00  0.00000000E+00  0.00000000E+00
  0.00000000E+00  0.00000000E+00  0.00000000E+00
  0.00000000E+00  0.00000000E+00  0.00000000E+00
  0.00000000E+00  0.00000000E+00  0.00000000E+00
  0.00000000E+00  0.00000000E+00  0.00000000E+00
  0.00000000E+00  0.00000000E+00  0.00000000E+00
  0.00000000E+00  0.00000000E+00  0.00000000E+00
  0.00000000E+00  0.00000000E+00  0.00000000E+00
