C O H                                   
   1.00000000000000     
    40.0000000000000000    0.0000000000000000    0.0000000000000000
     0.0000000000000000   40.0000000000000000    0.0000000000000000
     0.0000000000000000    0.0000000000000000   40.0000000000000000
   C    O    H 
     9     1     8
Selective dynamics
Direct
  0.4880449134692540  0.4778104929000450  0.4999911571381627   T   T   T
  0.4735539781517062  0.5096214808256748  0.4999944830831798   T   T   T
  0.4939041557120889  0.5381289846387712  0.4999930006130677   T   T   T
  0.5282769749984559  0.5349178170955569  0.4999890925160114   T   T   T
  0.5433487849135901  0.5031012331630226  0.4999912523058533   T   T   T
  0.5226580944027540  0.4748021440565950  0.4999866341900264   T   T   T
  0.5787036286829289  0.4998347616068717  0.5000018490190417   T   T   T
  0.6088193910256804  0.4972482790042971  0.5000221782054974   T   T   T
  0.4180151334217887  0.4872351834261953  0.5000075854794231   T   T   T
  0.4400920191461702  0.5154849828840381  0.5000012321912300   T   T   T
  0.5338905687272173  0.4501433812847377  0.4999878642388112   T   T   T
  0.6353532398380750  0.4949036916900105  0.5000272109692692   T   T   T
  0.5438725887269236  0.5570577592887508  0.4999911127649334   T   T   T
  0.4821976877777520  0.5625662086532425  0.4999952263020870   T   T   T
  0.3929292946010574  0.4976703619481523  0.5000156476268939   T   T   T
  0.4217609256505828  0.4720062456346949  0.4776381172379812   T   T   T
  0.4217744900368026  0.4720070508033019  0.5223747290009370   T   T   T
  0.4728031307171817  0.4554599410960343  0.4999916271175867   T   T   T
 
  0.00000000E+00  0.00000000E+00  0.00000000E+00
  0.00000000E+00  0.00000000E+00  0.00000000E+00
  0.00000000E+00  0.00000000E+00  0.00000000E+00
  0.00000000E+00  0.00000000E+00  0.00000000E+00
  0.00000000E+00  0.00000000E+00  0.00000000E+00
  0.00000000E+00  0.00000000E+00  0.00000000E+00
  0.00000000E+00  0.00000000E+00  0.00000000E+00
  0.00000000E+00  0.00000000E+00  0.00000000E+00
  0.00000000E+00  0.00000000E+00  0.00000000E+00
  0.00000000E+00  0.00000000E+00  0.00000000E+00
  0.00000000E+00  0.00000000E+00  0.00000000E+00
  0.00000000E+00  0.00000000E+00  0.00000000E+00
  0.00000000E+00  0.00000000E+00  0.00000000E+00
  0.00000000E+00  0.00000000E+00  0.00000000E+00
  0.00000000E+00  0.00000000E+00  0.00000000E+00
  0.00000000E+00  0.00000000E+00  0.00000000E+00
  0.00000000E+00  0.00000000E+00  0.00000000E+00
  0.00000000E+00  0.00000000E+00  0.00000000E+00
