C H                                     
   1.00000000000000     
    40.0000000000000000    0.0000000000000000    0.0000000000000000
     0.0000000000000000   40.0000000000000000    0.0000000000000000
     0.0000000000000000    0.0000000000000000   40.0000000000000000
   C    H 
    12    14
Selective dynamics
Direct
  0.5124101311991183  0.4676661692256587  0.4999962536506004   T   T   T
  0.5353984680664610  0.4944857993195129  0.4999968803733523   T   T   T
  0.5219705217126602  0.5270907118858830  0.4999931470740222   T   T   T
  0.4875887083318204  0.5323349255633545  0.4999873567320634   T   T   T
  0.4646013344625572  0.5055147272819980  0.4999875801372866   T   T   T
  0.4780283944638839  0.4729098418060218  0.4999921004890027   T   T   T
  0.4287136619026057  0.5128361004793973  0.4999831639050569   T   T   T
  0.4032899297312653  0.4907208824616802  0.5000063516748625   T   T   T
  0.3671152153610038  0.5000414715943791  0.5000113078840087   T   T   T
  0.5712856460017903  0.4871636679730713  0.5000019308261514   T   T   T
  0.5967133030496754  0.5092798198982607  0.5000017606011866   T   T   T
  0.6328858968557824  0.4999578291307003  0.5000061956234987   T   T   T
  0.4614175200190473  0.4512662901781184  0.4999917700108440   T   T   T
  0.3542082286011023  0.4895634048866881  0.4780247664914583   T   T   T
  0.3636100276816308  0.5272853288448829  0.4999868651562238   T   T   T
  0.3542181227889998  0.4896053485390794  0.5220231264690725   T   T   T
  0.4086824014338220  0.4638792624962846  0.5000343965399736   T   T   T
  0.4224348383215641  0.5395243766540574  0.4999684646253968   T   T   T
  0.4780056331354601  0.5579192501439252  0.4999872487112142   T   T   T
  0.5385820865778967  0.5487347013754658  0.4999934294919726   T   T   T
  0.6457864005274416  0.5104185495667863  0.5220041226367087   T   T   T
  0.6457873702467509  0.5104123254237010  0.4780054820711683   T   T   T
  0.6363907690231159  0.4727138150754797  0.5000107903483126   T   T   T
  0.5913183130976520  0.5361202161949592  0.5000014955809959   T   T   T
  0.5775636592804645  0.4604754115996670  0.5000043847584976   T   T   T
  0.5219934181264207  0.4420807724009990  0.4999986281370070   T   T   T
 
  0.00000000E+00  0.00000000E+00  0.00000000E+00
  0.00000000E+00  0.00000000E+00  0.00000000E+00
  0.00000000E+00  0.00000000E+00  0.00000000E+00
  0.00000000E+00  0.00000000E+00  0.00000000E+00
  0.00000000E+00  0.00000000E+00  0.00000000E+00
  0.00000000E+00  0.00000000E+00  0.00000000E+00
  0.00000000E+00  0.00000000E+00  0.00000000E+00
  0.00000000E+00  0.00000000E+00  0.00000000E+00
  0.00000000E+00  0.00000000E+00  0.00000000E+00
  0.00000000E+00  0.00000000E+00  0.00000000E+00
  0.00000000E+00  0.00000000E+00  0.00000000E+00
  0.00000000E+00  0.00000000E+00  0.00000000E+00
  0.00000000E+00  0.00000000E+00  0.00000000E+00
  0.00000000E+00  0.00000000E+00  0.00000000E+00
  0.00000000E+00  0.00000000E+00  0.00000000E+00
  0.00000000E+00  0.00000000E+00  0.00000000E+00
  0.00000000E+00  0.00000000E+00  0.00000000E+00
  0.00000000E+00  0.00000000E+00  0.00000000E+00
  0.00000000E+00  0.00000000E+00  0.00000000E+00
  0.00000000E+00  0.00000000E+00  0.00000000E+00
  0.00000000E+00  0.00000000E+00  0.00000000E+00
  0.00000000E+00  0.00000000E+00  0.00000000E+00
  0.00000000E+00  0.00000000E+00  0.00000000E+00
  0.00000000E+00  0.00000000E+00  0.00000000E+00
  0.00000000E+00  0.00000000E+00  0.00000000E+00
  0.00000000E+00  0.00000000E+00  0.00000000E+00
