C O H                                   
   1.00000000000000     
    40.0000000000000000    0.0000000000000000    0.0000000000000000
     0.0000000000000000   40.0000000000000000    0.0000000000000000
     0.0000000000000000    0.0000000000000000   40.0000000000000000
   C    O    H 
     9     1    10
Selective dynamics
Direct
  0.5067147198365518  0.5242392436592098  0.4997665083818035   T   T   T
  0.4718293068776944  0.5245455666983432  0.4996456426751976   T   T   T
  0.4533969466412842  0.4946629099989650  0.4996905166090073   T   T   T
  0.4711229116797497  0.4642630741621190  0.4997232869062742   T   T   T
  0.5058651017467710  0.4637952755729486  0.4998726235357012   T   T   T
  0.5243153409868526  0.4937717478369095  0.4999230851148866   T   T   T
  0.5615746366432717  0.4920258433898894  0.5000299254945588   T   T   T
  0.5814033942513461  0.5241662688964368  0.5000749929624675   T   T   T
  0.4158102258248348  0.4949450029017655  0.5002424938064962   T   T   T
  0.5761218232679539  0.4646426484641140  0.5000911817669973   T   T   T
  0.6081605617930848  0.5183508450148224  0.5002031986135123   T   T   T
  0.5752150217982930  0.5393944290408612  0.5221269492093725   T   T   T
  0.5754144040416165  0.5393208931035431  0.4779162652724196   T   T   T
  0.5193439389734777  0.4400995777944985  0.4998501492046117   T   T   T
  0.4572885801653328  0.4407241616766200  0.4995751253295708   T   T   T
  0.4065902482891062  0.4917627014373309  0.5260068438299257   T   T   T
  0.4057093209247782  0.5186212972580506  0.4907250918616057   T   T   T
  0.4054541599096382  0.4742789262572984  0.4854071247216751   T   T   T
  0.4585718109642798  0.5484069366843158  0.4994430437924109   T   T   T
  0.5200975453840897  0.5479836501519486  0.4996879509115004   T   T   T
 
  0.00000000E+00  0.00000000E+00  0.00000000E+00
  0.00000000E+00  0.00000000E+00  0.00000000E+00
  0.00000000E+00  0.00000000E+00  0.00000000E+00
  0.00000000E+00  0.00000000E+00  0.00000000E+00
  0.00000000E+00  0.00000000E+00  0.00000000E+00
  0.00000000E+00  0.00000000E+00  0.00000000E+00
  0.00000000E+00  0.00000000E+00  0.00000000E+00
  0.00000000E+00  0.00000000E+00  0.00000000E+00
  0.00000000E+00  0.00000000E+00  0.00000000E+00
  0.00000000E+00  0.00000000E+00  0.00000000E+00
  0.00000000E+00  0.00000000E+00  0.00000000E+00
  0.00000000E+00  0.00000000E+00  0.00000000E+00
  0.00000000E+00  0.00000000E+00  0.00000000E+00
  0.00000000E+00  0.00000000E+00  0.00000000E+00
  0.00000000E+00  0.00000000E+00  0.00000000E+00
  0.00000000E+00  0.00000000E+00  0.00000000E+00
  0.00000000E+00  0.00000000E+00  0.00000000E+00
  0.00000000E+00  0.00000000E+00  0.00000000E+00
  0.00000000E+00  0.00000000E+00  0.00000000E+00
  0.00000000E+00  0.00000000E+00  0.00000000E+00
