C O H                                   
   1.00000000000000     
    40.0000000000000000    0.0000000000000000    0.0000000000000000
     0.0000000000000000   40.0000000000000000    0.0000000000000000
     0.0000000000000000    0.0000000000000000   40.0000000000000000
   C    O    H 
     8     1     8
Selective dynamics
Direct
  0.5103177970246048  0.4766294881284810  0.4999923228224454   T   T   T
  0.5448902871021535  0.4759888292699853  0.4999977142952583   T   T   T
  0.5637124760107813  0.5057157061499838  0.5000043401070866   T   T   T
  0.5463680092575041  0.5363208086422082  0.5000016702354618   T   T   T
  0.5118609021873244  0.5373734682571006  0.4999929419222278   T   T   T
  0.4921217019357094  0.5074662762993117  0.4999938501961309   T   T   T
  0.4564563463483879  0.5092320282747039  0.4999950037922221   T   T   T
  0.4363602124740704  0.4770135313876942  0.5000051452159254   T   T   T
  0.4405046813021656  0.5372003724970734  0.4999960415045294   T   T   T
  0.4098200671685167  0.4832638751506683  0.5000058612611596   T   T   T
  0.4415170251191616  0.4613917368944302  0.5219536905738694   T   T   T
  0.4415124061932986  0.4613818276182169  0.4780612759481027   T   T   T
  0.4988525389364075  0.5611769167303959  0.4999937632235420   T   T   T
  0.5603646885421911  0.5596368181468826  0.5000054067621668   T   T   T
  0.5908166526924379  0.5050795366545447  0.5000122195555872   T   T   T
  0.5577262361711932  0.4520313585663566  0.4999996732598659   T   T   T
  0.4967989715341245  0.4530974213319985  0.4999880793244282   T   T   T
 
  0.00000000E+00  0.00000000E+00  0.00000000E+00
  0.00000000E+00  0.00000000E+00  0.00000000E+00
  0.00000000E+00  0.00000000E+00  0.00000000E+00
  0.00000000E+00  0.00000000E+00  0.00000000E+00
  0.00000000E+00  0.00000000E+00  0.00000000E+00
  0.00000000E+00  0.00000000E+00  0.00000000E+00
  0.00000000E+00  0.00000000E+00  0.00000000E+00
  0.00000000E+00  0.00000000E+00  0.00000000E+00
  0.00000000E+00  0.00000000E+00  0.00000000E+00
  0.00000000E+00  0.00000000E+00  0.00000000E+00
  0.00000000E+00  0.00000000E+00  0.00000000E+00
  0.00000000E+00  0.00000000E+00  0.00000000E+00
  0.00000000E+00  0.00000000E+00  0.00000000E+00
  0.00000000E+00  0.00000000E+00  0.00000000E+00
  0.00000000E+00  0.00000000E+00  0.00000000E+00
  0.00000000E+00  0.00000000E+00  0.00000000E+00
  0.00000000E+00  0.00000000E+00  0.00000000E+00
