C O H                                   
   1.00000000000000     
    40.0000000000000000    0.0000000000000000    0.0000000000000000
     0.0000000000000000   40.0000000000000000    0.0000000000000000
     0.0000000000000000    0.0000000000000000   40.0000000000000000
   C    O    H 
     4     1     4
Selective dynamics
Direct
  0.4857232708433318  0.4724670290926288  0.5000000000000000   T   T   T
  0.5184768677609183  0.4820659402751841  0.5000000000000000   T   T   T
  0.5184758677609137  0.5179350597248135  0.5000000000000000   T   T   T
  0.4857212708433298  0.5275319709073667  0.5000000000000000   T   T   T
  0.4652247156533379  0.4999990000000025  0.5000000000000000   T   T   T
  0.4731442795103986  0.5515245754005289  0.5000000000000000   T   T   T
  0.5400417240587002  0.5343868223988271  0.4999990000000025   T   T   T
  0.5400437240586952  0.4656161776011723  0.5000000000000000   T   T   T
  0.4731472795103981  0.4484734245994692  0.5000000000000000   T   T   T
 
  0.00000000E+00  0.00000000E+00  0.00000000E+00
  0.00000000E+00  0.00000000E+00  0.00000000E+00
  0.00000000E+00  0.00000000E+00  0.00000000E+00
  0.00000000E+00  0.00000000E+00  0.00000000E+00
  0.00000000E+00  0.00000000E+00  0.00000000E+00
  0.00000000E+00  0.00000000E+00  0.00000000E+00
  0.00000000E+00  0.00000000E+00  0.00000000E+00
  0.00000000E+00  0.00000000E+00  0.00000000E+00
  0.00000000E+00  0.00000000E+00  0.00000000E+00
