C N H                                   
   1.00000000000000     
    40.0000000000000000    0.0000000000000000    0.0000000000000000
     0.0000000000000000   40.0000000000000000    0.0000000000000000
     0.0000000000000000    0.0000000000000000   40.0000000000000000
   C    N    H 
     3     2     4
Selective dynamics
Direct
  0.5048970712724694  0.5246247278646977  0.5000009999999975   T   T   T
  0.5253173034457829  0.4965150790983957  0.5000000000000000   T   T   T
  0.5028791500812262  0.4692337745883921  0.5000009999999975   T   T   T
  0.4708670150498422  0.4794975205061390  0.4999990000000025   T   T   T
  0.4729434638371773  0.5132525010124434  0.4999990000000025   T   T   T
  0.4516831235186171  0.5271170441606369  0.4999990000000025   T   T   T
  0.5084379123087828  0.4426280868885898  0.5000009999999975   T   T   T
  0.5524289853403849  0.4959764425171660  0.5000000000000000   T   T   T
  0.5105449751457128  0.5511538233635490  0.5000009999999975   T   T   T
 
  0.00000000E+00  0.00000000E+00  0.00000000E+00
  0.00000000E+00  0.00000000E+00  0.00000000E+00
  0.00000000E+00  0.00000000E+00  0.00000000E+00
  0.00000000E+00  0.00000000E+00  0.00000000E+00
  0.00000000E+00  0.00000000E+00  0.00000000E+00
  0.00000000E+00  0.00000000E+00  0.00000000E+00
  0.00000000E+00  0.00000000E+00  0.00000000E+00
  0.00000000E+00  0.00000000E+00  0.00000000E+00
  0.00000000E+00  0.00000000E+00  0.00000000E+00
