C N H                                   
   1.00000000000000     
    40.0000000000000000    0.0000000000000000    0.0000000000000000
     0.0000000000000000   40.0000000000000000    0.0000000000000000
     0.0000000000000000    0.0000000000000000   40.0000000000000000
   C    N    H 
     8     2     4
Selective dynamics
Direct
  0.4694216060613676  0.4896620694839483  0.4999974930823211   T   T   T
  0.4693893007428371  0.5260847717185450  0.5000054236014885   T   T   T
  0.5000015512813205  0.5428190299892389  0.4999992155107163   T   T   T
  0.5306115645189399  0.5260823340213686  0.4999899188372278   T   T   T
  0.5305776386146740  0.4896596858751429  0.4999931236413462   T   T   T
  0.4999985853650971  0.4723761928362349  0.4999932137438333   T   T   T
  0.5608488635063986  0.4717574337086560  0.5000077010209762   T   T   T
  0.4391518717527605  0.4717622172013591  0.4999979778094602   T   T   T
  0.5867862040244441  0.4576302069506426  0.5000199844960459   T   T   T
  0.4132095640033447  0.4576331490517790  0.4999988097560510   T   T   T
  0.4999978374188153  0.4450916076321252  0.4999940804122058   T   T   T
  0.5542215074149918  0.5396442741882388  0.4999897666820985   T   T   T
  0.5000017957544872  0.5701513334124932  0.5000024687427115   T   T   T
  0.4457801095405476  0.5396476939302151  0.5000118226635012   T   T   T
 
  0.00000000E+00  0.00000000E+00  0.00000000E+00
  0.00000000E+00  0.00000000E+00  0.00000000E+00
  0.00000000E+00  0.00000000E+00  0.00000000E+00
  0.00000000E+00  0.00000000E+00  0.00000000E+00
  0.00000000E+00  0.00000000E+00  0.00000000E+00
  0.00000000E+00  0.00000000E+00  0.00000000E+00
  0.00000000E+00  0.00000000E+00  0.00000000E+00
  0.00000000E+00  0.00000000E+00  0.00000000E+00
  0.00000000E+00  0.00000000E+00  0.00000000E+00
  0.00000000E+00  0.00000000E+00  0.00000000E+00
  0.00000000E+00  0.00000000E+00  0.00000000E+00
  0.00000000E+00  0.00000000E+00  0.00000000E+00
  0.00000000E+00  0.00000000E+00  0.00000000E+00
  0.00000000E+00  0.00000000E+00  0.00000000E+00
