!TPSSh aug-cc-pVTZ d3 TightSCF SlowConv RIJCOSX defgrid2
 
%pal
nprocs 4
end
 
%scf
MaxIter 1500
end
 
%maxcore 3000
 
!CPCM
%cpcm smd true
SMDsolvent "MeCN"
surfacetype gepol_ses
rsolv 2.19
end 
 
* xyz 0 1
C           2.55730705781469     -0.80272836948539      0.48102366137177
N           1.33294167009809     -1.43182229011705      0.05765766630002
C           0.34101911025700     -0.70024719108755     -0.29708224356517
N           0.31874552010949      0.68032432716300     -0.31461541058671
C          -0.89176882402801      1.43497112867922     -0.56114377570643
C          -1.99046257064471      1.26916813990179      0.49140268799889
C          -2.82765905468197      0.00715294881938      0.31516347050989
C          -2.04586918259982     -1.30153194326604      0.35164544445367
C          -0.92828974970724     -1.41500601198787     -0.69150138780777
H          -1.29203198403960     -1.06672742425397     -1.67656916039338
H          -0.63133731154972     -2.46745300434559     -0.80196281377539
H          -1.60570603630129     -1.45752170010282      1.35429556519630
H          -2.75596289666527     -2.13329897794767      0.19602041294681
H          -3.61539692476010     -0.01845840431235      1.08977014149609
H          -3.35605019663435      0.07487469231763     -0.65651142659301
H          -1.52340584005630      1.28855731350301      1.49408745577621
H          -2.66130549588890      2.14642124767486      0.44000200996492
H          -1.30052595544982      1.19153726692681     -1.56065100823810
H          -0.59215925219953      2.49412223128000     -0.60923298902630
C           1.46914234333312      1.40286101249685      0.18937626674719
C           2.73710761812345      0.60793735504758     -0.06280329082443
H           3.60249952280460      1.11378780244457      0.39882866501775
H           2.92030114355612      0.56196935074214     -1.15150232607945
H           1.52000693344937      2.38033435200841     -0.32184635939607
H           1.36269728052713      1.61326327329284      1.27517926988309
H           2.58886170713689     -0.78409197751190      1.58995809372292
H           3.40579976799671     -1.44067914787991      0.17257018060666
*
