C H                                     
   1.00000000000000     
    40.0000000000000000    0.0000000000000000    0.0000000000000000
     0.0000000000000000   40.0000000000000000    0.0000000000000000
     0.0000000000000000    0.0000000000000000   40.0000000000000000
   C    H 
    14    10
Selective dynamics
Direct
  0.6035420548679977  0.5302569112327430  0.5000051766290472   T   T   T
  0.6210996243157693  0.5000016937719504  0.4999963929356586   T   T   T
  0.6035435761566326  0.4697455527902478  0.4999897324934899   T   T   T
  0.5687184827899334  0.4696056896336956  0.4999923823317889   T   T   T
  0.5507297220079338  0.4999992214746659  0.5000023237613063   T   T   T
  0.5687162257527759  0.5303940521667817  0.5000076861825008   T   T   T
  0.5152724711382181  0.4999977989430382  0.5000067561554474   T   T   T
  0.4847272867049119  0.4999966023783074  0.5000091248083091   T   T   T
  0.4492697019411044  0.4999975034301957  0.5000062230657709   T   T   T
  0.4312824506773307  0.4696038816913157  0.5000104964202928   T   T   T
  0.3964549855004972  0.4697450388318947  0.5000065434238664   T   T   T
  0.3789013236168633  0.5000016010524684  0.4999964207423165   T   T   T
  0.3964578837158227  0.5302559760689103  0.4999906463644401   T   T   T
  0.4312847995841487  0.5303927181066067  0.4999952536596725   T   T   T
  0.5549693109596531  0.5539268370366205  0.5000121739025223   T   T   T
  0.4450310857311056  0.5539255962588401  0.4999924500606812   T   T   T
  0.3828903414773250  0.5539148008802393  0.4999854503967445   T   T   T
  0.3516482180933925  0.5000026522520346  0.4999937999271998   T   T   T
  0.3828855102578071  0.4460876745333034  0.5000083120761750   T   T   T
  0.4450269020522894  0.4460705192715420  0.5000154156249365   T   T   T
  0.5549720720515162  0.4460718324605893  0.4999898909204106   T   T   T
  0.6171132860253792  0.4460881029536952  0.4999852466046508   T   T   T
  0.6483517969481547  0.5000026694663475  0.4999950123242382   T   T   T
  0.6171098876334541  0.5539150733139735  0.5000080891885239   T   T   T
 
  0.00000000E+00  0.00000000E+00  0.00000000E+00
  0.00000000E+00  0.00000000E+00  0.00000000E+00
  0.00000000E+00  0.00000000E+00  0.00000000E+00
  0.00000000E+00  0.00000000E+00  0.00000000E+00
  0.00000000E+00  0.00000000E+00  0.00000000E+00
  0.00000000E+00  0.00000000E+00  0.00000000E+00
  0.00000000E+00  0.00000000E+00  0.00000000E+00
  0.00000000E+00  0.00000000E+00  0.00000000E+00
  0.00000000E+00  0.00000000E+00  0.00000000E+00
  0.00000000E+00  0.00000000E+00  0.00000000E+00
  0.00000000E+00  0.00000000E+00  0.00000000E+00
  0.00000000E+00  0.00000000E+00  0.00000000E+00
  0.00000000E+00  0.00000000E+00  0.00000000E+00
  0.00000000E+00  0.00000000E+00  0.00000000E+00
  0.00000000E+00  0.00000000E+00  0.00000000E+00
  0.00000000E+00  0.00000000E+00  0.00000000E+00
  0.00000000E+00  0.00000000E+00  0.00000000E+00
  0.00000000E+00  0.00000000E+00  0.00000000E+00
  0.00000000E+00  0.00000000E+00  0.00000000E+00
  0.00000000E+00  0.00000000E+00  0.00000000E+00
  0.00000000E+00  0.00000000E+00  0.00000000E+00
  0.00000000E+00  0.00000000E+00  0.00000000E+00
  0.00000000E+00  0.00000000E+00  0.00000000E+00
  0.00000000E+00  0.00000000E+00  0.00000000E+00
