!PBE0 aug-cc-pVTZ d3 TightSCF SlowConv RIJCOSX defgrid2
 
%pal
nprocs 4
end
 
%scf
MaxIter 1500
end
 
%maxcore 3000
 
!CPCM
%cpcm smd true
SMDsolvent "MeCN"
surfacetype gepol_ses
rsolv 2.19
end 
 
* xyz 0 1
C           0.48360567195606     -1.21229390689687     -0.00037134428610
C           1.87690194124081     -1.23618350779417     -0.00001608088298
C           2.59422075073626     -0.04047481851856      0.00022611932314
C           1.91690889899697      1.18098236414826      0.00010944657389
C           0.52720301634613      1.20350626322595     -0.00024479123569
C          -0.20304994422496      0.00795284786184     -0.00051856197987
C          -1.69823329325947      0.10073243557531     -0.00093855711764
O          -2.24783450756777      1.18012430228825      0.00047343643148
C          -2.49873773674618     -1.18055979411728      0.00001226054872
H          -3.56874245805795     -0.92684719916367      0.00028072085676
H          -2.26765286226878     -1.79214055957540      0.88960271021885
H          -2.26826604600788     -1.79314451916799     -0.88902976580653
H          -0.03046089965679      2.14367830490160     -0.00034789708130
H           2.47945545467799      2.11929230948718      0.00030005734770
H           3.68826884274775     -0.06009102388695      0.00051141148870
H           2.40583590173159     -2.19363249350041      0.00008658903805
H          -0.06689973064377     -2.15667190486707     -0.00053355343717
*
