C O H                                   
   1.00000000000000     
    40.0000000000000000    0.0000000000000000    0.0000000000000000
     0.0000000000000000   40.0000000000000000    0.0000000000000000
     0.0000000000000000    0.0000000000000000   40.0000000000000000
   C    O    H 
     7     1     8
Selective dynamics
Direct
  0.4981525749099436  0.5243684879937669  0.4999990000000025   T   T   T
  0.4642765837039792  0.5302031639660599  0.4999990000000025   T   T   T
  0.4412807457559741  0.5031070946376544  0.5000000000000000   T   T   T
  0.4525323043470538  0.4696340233592468  0.5000009999999975   T   T   T
  0.4862651270286287  0.4630777141717117  0.5000009999999975   T   T   T
  0.5094515559056990  0.4905047097544274  0.5000000000000000   T   T   T
  0.5678012271306541  0.5063029920745669  0.5000000000000000   T   T   T
  0.5411769220177817  0.4814888155329839  0.5000000000000000   T   T   T
  0.5659816848896739  0.5217114636084577  0.4773846020173947   T   T   T
  0.5659806848896765  0.5217114636084577  0.5226153979826054   T   T   T
  0.5909025013787945  0.4918001232283660  0.5000009999999975   T   T   T
  0.4963453612200380  0.4377831912196710  0.5000020000000021   T   T   T
  0.4345548489129027  0.4492035526397601  0.5000020000000021   T   T   T
  0.4145517972027991  0.5083569694045192  0.5000000000000000   T   T   T
  0.4548730184377356  0.5557471086484242  0.4999979999999979   T   T   T
  0.5158730622686519  0.5449991261519335  0.4999979999999979   T   T   T
 
  0.00000000E+00  0.00000000E+00  0.00000000E+00
  0.00000000E+00  0.00000000E+00  0.00000000E+00
  0.00000000E+00  0.00000000E+00  0.00000000E+00
  0.00000000E+00  0.00000000E+00  0.00000000E+00
  0.00000000E+00  0.00000000E+00  0.00000000E+00
  0.00000000E+00  0.00000000E+00  0.00000000E+00
  0.00000000E+00  0.00000000E+00  0.00000000E+00
  0.00000000E+00  0.00000000E+00  0.00000000E+00
  0.00000000E+00  0.00000000E+00  0.00000000E+00
  0.00000000E+00  0.00000000E+00  0.00000000E+00
  0.00000000E+00  0.00000000E+00  0.00000000E+00
  0.00000000E+00  0.00000000E+00  0.00000000E+00
  0.00000000E+00  0.00000000E+00  0.00000000E+00
  0.00000000E+00  0.00000000E+00  0.00000000E+00
  0.00000000E+00  0.00000000E+00  0.00000000E+00
  0.00000000E+00  0.00000000E+00  0.00000000E+00
