C H                                     
   1.00000000000000     
    40.0000000000000000    0.0000000000000000    0.0000000000000000
     0.0000000000000000   40.0000000000000000    0.0000000000000000
     0.0000000000000000    0.0000000000000000   40.0000000000000000
   C    H 
     8     6
Selective dynamics
Direct
  0.5345047877260427  0.4697234579221501  0.5000000438024301   T   T   T
  0.5520511254594211  0.5000004866960950  0.5000003005151186   T   T   T
  0.5345017740754372  0.5302757617459477  0.5000000441615100   T   T   T
  0.4996202837049637  0.5304252750205123  0.4999988126234811   T   T   T
  0.4817582039030839  0.4999971693021550  0.4999970248784251   T   T   T
  0.4996228670565657  0.4695701573473627  0.4999988120867513   T   T   T
  0.4461253328081227  0.5000006682580675  0.4999957629602108   T   T   T
  0.4157188599564918  0.5000116614010466  0.4999979452558989   T   T   T
  0.4858713885858208  0.4460274275476621  0.4999982648531471   T   T   T
  0.3888964383873201  0.4999979301158533  0.5000138788045163   T   T   T
  0.4858664053840585  0.5539665211591895  0.4999982651206381   T   T   T
  0.5480663549124642  0.5539417963313511  0.5000002693228183   T   T   T
  0.5793244840703622  0.5000019164800378  0.5000003064364478   T   T   T
  0.5480716939698453  0.4460587706725718  0.5000002691786136   T   T   T
 
  0.00000000E+00  0.00000000E+00  0.00000000E+00
  0.00000000E+00  0.00000000E+00  0.00000000E+00
  0.00000000E+00  0.00000000E+00  0.00000000E+00
  0.00000000E+00  0.00000000E+00  0.00000000E+00
  0.00000000E+00  0.00000000E+00  0.00000000E+00
  0.00000000E+00  0.00000000E+00  0.00000000E+00
  0.00000000E+00  0.00000000E+00  0.00000000E+00
  0.00000000E+00  0.00000000E+00  0.00000000E+00
  0.00000000E+00  0.00000000E+00  0.00000000E+00
  0.00000000E+00  0.00000000E+00  0.00000000E+00
  0.00000000E+00  0.00000000E+00  0.00000000E+00
  0.00000000E+00  0.00000000E+00  0.00000000E+00
  0.00000000E+00  0.00000000E+00  0.00000000E+00
  0.00000000E+00  0.00000000E+00  0.00000000E+00
