C N O H                                 
   1.00000000000000     
    40.0000000000000000    0.0000000000000000    0.0000000000000000
     0.0000000000000000   40.0000000000000000    0.0000000000000000
     0.0000000000000000    0.0000000000000000   40.0000000000000000
   C    N    O    H 
     8     1     3     7
Selective dynamics
Direct
  0.5013405127265855  0.4634307306204164  0.4999807635894626   T   T   T
  0.4666251464151969  0.4634026194007177  0.5000059572266338   T   T   T
  0.4499245298903034  0.4940754404560508  0.5000417648218018   T   T   T
  0.4669443197846519  0.5245023327495133  0.5000473793412468   T   T   T
  0.5017679223033937  0.5240911071250380  0.5000164379210545   T   T   T
  0.5192852030674899  0.4936374499510947  0.4999860424613445   T   T   T
  0.5568960715645872  0.4919527944152193  0.4999566894882150   T   T   T
  0.5764790759346781  0.5241995238773640  0.4999416416258029   T   T   T
  0.4129770416577685  0.4942699627883869  0.5000650633612480   T   T   T
  0.5710425406808852  0.4646039045562844  0.4999489714017429   T   T   T
  0.3986166730361589  0.5217876310135452  0.5000892110278983   T   T   T
  0.3983811124527392  0.4668819681082397  0.5000585021631636   T   T   T
  0.5703902517060442  0.5393411199909224  0.5220765651390877   T   T   T
  0.6032231411140643  0.5185067916188970  0.4998761552336859   T   T   T
  0.5702918685437552  0.5393919849822595  0.4778687167791276   T   T   T
  0.5151500578211454  0.5478089414368981  0.5000177503792145   T   T   T
  0.4529635687381628  0.5478323064477095  0.5000710196826503   T   T   T
  0.4523761650408105  0.4402395566576800  0.4999972647002835   T   T   T
  0.5153237975215887  0.4400478338037530  0.4999531036563454   T   T   T
 
  0.00000000E+00  0.00000000E+00  0.00000000E+00
  0.00000000E+00  0.00000000E+00  0.00000000E+00
  0.00000000E+00  0.00000000E+00  0.00000000E+00
  0.00000000E+00  0.00000000E+00  0.00000000E+00
  0.00000000E+00  0.00000000E+00  0.00000000E+00
  0.00000000E+00  0.00000000E+00  0.00000000E+00
  0.00000000E+00  0.00000000E+00  0.00000000E+00
  0.00000000E+00  0.00000000E+00  0.00000000E+00
  0.00000000E+00  0.00000000E+00  0.00000000E+00
  0.00000000E+00  0.00000000E+00  0.00000000E+00
  0.00000000E+00  0.00000000E+00  0.00000000E+00
  0.00000000E+00  0.00000000E+00  0.00000000E+00
  0.00000000E+00  0.00000000E+00  0.00000000E+00
  0.00000000E+00  0.00000000E+00  0.00000000E+00
  0.00000000E+00  0.00000000E+00  0.00000000E+00
  0.00000000E+00  0.00000000E+00  0.00000000E+00
  0.00000000E+00  0.00000000E+00  0.00000000E+00
  0.00000000E+00  0.00000000E+00  0.00000000E+00
  0.00000000E+00  0.00000000E+00  0.00000000E+00
