C Cl O H                                
   1.00000000000000     
    40.0000000000000000    0.0000000000000000    0.0000000000000000
     0.0000000000000000   40.0000000000000000    0.0000000000000000
     0.0000000000000000    0.0000000000000000   40.0000000000000000
   C    Cl   O    H 
     7     1     1     5
Selective dynamics
Direct
  0.4966742893004059  0.4687082752587785  0.4999841540338885   T   T   T
  0.4629077886667115  0.4763466931436307  0.4999814899860654   T   T   T
  0.4516176838489456  0.5097547123922751  0.4999965598601496   T   T   T
  0.4758193170145972  0.5354581664154715  0.5000121235827372   T   T   T
  0.5097557543647120  0.5284696179678030  0.5000132424754531   T   T   T
  0.5217124882943885  0.4946642983528164  0.5000022685693752   T   T   T
  0.5556441596031310  0.4844011441074528  0.5000041196946209   T   T   T
  0.5870466941043541  0.5212450171448774  0.5000152098879429   T   T   T
  0.5685455669379139  0.4563224309118614  0.4999973046726356   T   T   T
  0.5278547617652192  0.5488163986074043  0.5000323518881459   T   T   T
  0.4677121249470569  0.5615570592421693  0.5000265079646415   T   T   T
  0.4249886861416427  0.5155604822318526  0.4999936144955172   T   T   T
  0.4447172134734744  0.4559475000890383  0.4999684647987216   T   T   T
  0.5050024715374424  0.4427492041345665  0.4999725880900982   T   T   T
 
  0.00000000E+00  0.00000000E+00  0.00000000E+00
  0.00000000E+00  0.00000000E+00  0.00000000E+00
  0.00000000E+00  0.00000000E+00  0.00000000E+00
  0.00000000E+00  0.00000000E+00  0.00000000E+00
  0.00000000E+00  0.00000000E+00  0.00000000E+00
  0.00000000E+00  0.00000000E+00  0.00000000E+00
  0.00000000E+00  0.00000000E+00  0.00000000E+00
  0.00000000E+00  0.00000000E+00  0.00000000E+00
  0.00000000E+00  0.00000000E+00  0.00000000E+00
  0.00000000E+00  0.00000000E+00  0.00000000E+00
  0.00000000E+00  0.00000000E+00  0.00000000E+00
  0.00000000E+00  0.00000000E+00  0.00000000E+00
  0.00000000E+00  0.00000000E+00  0.00000000E+00
  0.00000000E+00  0.00000000E+00  0.00000000E+00
