C O H                                   
   1.00000000000000     
    40.0000000000000000    0.0000000000000000    0.0000000000000000
     0.0000000000000000   40.0000000000000000    0.0000000000000000
     0.0000000000000000    0.0000000000000000   40.0000000000000000
   C    O    H 
    10     2    10
Selective dynamics
Direct
  0.4937875939560234  0.4571057130026114  0.5014034179150769   T   T   T
  0.4587333266044961  0.4540288594558535  0.5006685982358274   T   T   T
  0.4405974356557700  0.4834389061666918  0.4997693859706228   T   T   T
  0.4564456282350430  0.5146284943887902  0.4998038889286184   T   T   T
  0.4907165495788728  0.5180137973586266  0.5006625988548840   T   T   T
  0.5101779111925105  0.4882652828941026  0.5013888201524062   T   T   T
  0.5468372103750825  0.4888855419735019  0.5020681683079093   T   T   T
  0.5669413844518233  0.5159252643911113  0.5016241278705346   T   T   T
  0.6042973644167033  0.5145114023630013  0.5023958852195016   T   T   T
  0.4011123152645986  0.5230658394872632  0.4943948217397191   T   T   T
  0.4327244585241172  0.5396876427599864  0.5001971818231945   T   T   T
  0.4063944121591385  0.4876811001482385  0.5000932935997171   T   T   T
  0.6134874589270251  0.4886298368706115  0.5033251200957326   T   T   T
  0.6151717279628082  0.5267604876498860  0.4802206224995464   T   T   T
  0.6143061960960995  0.5280236205862195  0.5242448802767651   T   T   T
  0.5559531875738339  0.5409908727880566  0.5006213114070600   T   T   T
  0.5586803712522752  0.4641732947279547  0.5029951185681285   T   T   T
  0.5022166069688624  0.5427007593421211  0.5009256648097572   T   T   T
  0.3934484553081987  0.5269777286048216  0.4682084947754127   T   T   T
  0.3825095709387095  0.5324502900910486  0.5121942657850515   T   T   T
  0.4465607867896487  0.4296633691103008  0.5008493031179410   T   T   T
  0.5089010477683500  0.4343908958392104  0.5019440300466101   T   T   T
 
  0.00000000E+00  0.00000000E+00  0.00000000E+00
  0.00000000E+00  0.00000000E+00  0.00000000E+00
  0.00000000E+00  0.00000000E+00  0.00000000E+00
  0.00000000E+00  0.00000000E+00  0.00000000E+00
  0.00000000E+00  0.00000000E+00  0.00000000E+00
  0.00000000E+00  0.00000000E+00  0.00000000E+00
  0.00000000E+00  0.00000000E+00  0.00000000E+00
  0.00000000E+00  0.00000000E+00  0.00000000E+00
  0.00000000E+00  0.00000000E+00  0.00000000E+00
  0.00000000E+00  0.00000000E+00  0.00000000E+00
  0.00000000E+00  0.00000000E+00  0.00000000E+00
  0.00000000E+00  0.00000000E+00  0.00000000E+00
  0.00000000E+00  0.00000000E+00  0.00000000E+00
  0.00000000E+00  0.00000000E+00  0.00000000E+00
  0.00000000E+00  0.00000000E+00  0.00000000E+00
  0.00000000E+00  0.00000000E+00  0.00000000E+00
  0.00000000E+00  0.00000000E+00  0.00000000E+00
  0.00000000E+00  0.00000000E+00  0.00000000E+00
  0.00000000E+00  0.00000000E+00  0.00000000E+00
  0.00000000E+00  0.00000000E+00  0.00000000E+00
  0.00000000E+00  0.00000000E+00  0.00000000E+00
  0.00000000E+00  0.00000000E+00  0.00000000E+00
