C O H                                   
   1.00000000000000     
    40.0000000000000000    0.0000000000000000    0.0000000000000000
     0.0000000000000000   40.0000000000000000    0.0000000000000000
     0.0000000000000000    0.0000000000000000   40.0000000000000000
   C    O    H 
     8     1     8
Selective dynamics
Direct
  0.5102936826765376  0.4766799177520433  0.4999899104574455   T   T   T
  0.5450348282388654  0.4759731840374385  0.4999977621962684   T   T   T
  0.5630095809056619  0.5057464037586585  0.5000039403017333   T   T   T
  0.5462202965982844  0.5362777274862459  0.5000008836487710   T   T   T
  0.5115994288586662  0.5370146338199588  0.4999951113841425   T   T   T
  0.4932362366703696  0.5072198088439931  0.4999918404053230   T   T   T
  0.4560095779642676  0.5092212844498346  0.4999967552866507   T   T   T
  0.4360969096110179  0.4772411670586808  0.5000055491864904   T   T   T
  0.4418417349264298  0.5364228351289737  0.4999949837423527   T   T   T
  0.4095926242642812  0.4833120872488843  0.5000063707612410   T   T   T
  0.4420146658236577  0.4620976845462729  0.5219768272608063   T   T   T
  0.4420097481615486  0.4620873309106482  0.4780394672947666   T   T   T
  0.4980733245795800  0.5604761772546184  0.4999960877829702   T   T   T
  0.5602328108659986  0.5594654616990036  0.5000065787162641   T   T   T
  0.5901062717652494  0.5052043398968271  0.5000100681958870   T   T   T
  0.5580679337451386  0.4522242522590621  0.4999987706519660   T   T   T
  0.4965613443444639  0.4533357038488778  0.4999880927269240   T   T   T
 
  0.00000000E+00  0.00000000E+00  0.00000000E+00
  0.00000000E+00  0.00000000E+00  0.00000000E+00
  0.00000000E+00  0.00000000E+00  0.00000000E+00
  0.00000000E+00  0.00000000E+00  0.00000000E+00
  0.00000000E+00  0.00000000E+00  0.00000000E+00
  0.00000000E+00  0.00000000E+00  0.00000000E+00
  0.00000000E+00  0.00000000E+00  0.00000000E+00
  0.00000000E+00  0.00000000E+00  0.00000000E+00
  0.00000000E+00  0.00000000E+00  0.00000000E+00
  0.00000000E+00  0.00000000E+00  0.00000000E+00
  0.00000000E+00  0.00000000E+00  0.00000000E+00
  0.00000000E+00  0.00000000E+00  0.00000000E+00
  0.00000000E+00  0.00000000E+00  0.00000000E+00
  0.00000000E+00  0.00000000E+00  0.00000000E+00
  0.00000000E+00  0.00000000E+00  0.00000000E+00
  0.00000000E+00  0.00000000E+00  0.00000000E+00
  0.00000000E+00  0.00000000E+00  0.00000000E+00
