C H                                     
   1.00000000000000     
    40.0000000000000000    0.0000000000000000    0.0000000000000000
     0.0000000000000000   40.0000000000000000    0.0000000000000000
     0.0000000000000000    0.0000000000000000   40.0000000000000000
   C    H 
    14    12
Selective dynamics
Direct
  0.5603649602304617  0.4777202136681288  0.5149326348210141   T   T   T
  0.5313896408393881  0.4905120054181858  0.4992387714039621   T   T   T
  0.5334169134255740  0.5212038719521811  0.4817580227125844   T   T   T
  0.5633190327037599  0.5384233499615243  0.4801555404896227   T   T   T
  0.5915323096992631  0.5258077964546314  0.4964155808012773   T   T   T
  0.5899006865412731  0.4955324707181792  0.5139082603408570   T   T   T
  0.5000000000000000  0.4724017082229046  0.5000000000000000   T   T   T
  0.5000000000000000  0.4377208352268946  0.4999990000000025   T   T   T
  0.4686103591606189  0.4905120054181858  0.5007612285960377   T   T   T
  0.4396350397695381  0.4777212136681334  0.4850673651789860   T   T   T
  0.4100993134587266  0.4955334707181767  0.4860917396591427   T   T   T
  0.4084676903007370  0.5258087964546289  0.5035844191987229   T   T   T
  0.4366809672962402  0.5384233499615243  0.5198454595103890   T   T   T
  0.4665830865744259  0.5212038719521811  0.5182429772874131   T   T   T
  0.6118184098529109  0.4861192088369777  0.5267368675524152   T   T   T
  0.6149210117231091  0.5393969008067382  0.4952722719230805   T   T   T
  0.5649153982067769  0.5614718568940700  0.4660419798316148   T   T   T
  0.5117033033960553  0.5303583391741765  0.4684284240734861   T   T   T
  0.4768539192751484  0.4237886232226044  0.4993141846127730   T   T   T
  0.5231450807248544  0.4237876232225998  0.5006838153872253   T   T   T
  0.4882966966039450  0.5303573391741790  0.5315725759265115   T   T   T
  0.4350846017932230  0.5614708568940725  0.5339600201683873   T   T   T
  0.3850789882768910  0.5393979008067428  0.5047287280769172   T   T   T
  0.3881815901470895  0.4861202088369752  0.4732621324475874   T   T   T
  0.4409596459813049  0.4546025911677097  0.4710534617114311   T   T   T
  0.5590403540186951  0.4546015911677122  0.5289445382885667   T   T   T
 
  0.00000000E+00  0.00000000E+00  0.00000000E+00
  0.00000000E+00  0.00000000E+00  0.00000000E+00
  0.00000000E+00  0.00000000E+00  0.00000000E+00
  0.00000000E+00  0.00000000E+00  0.00000000E+00
  0.00000000E+00  0.00000000E+00  0.00000000E+00
  0.00000000E+00  0.00000000E+00  0.00000000E+00
  0.00000000E+00  0.00000000E+00  0.00000000E+00
  0.00000000E+00  0.00000000E+00  0.00000000E+00
  0.00000000E+00  0.00000000E+00  0.00000000E+00
  0.00000000E+00  0.00000000E+00  0.00000000E+00
  0.00000000E+00  0.00000000E+00  0.00000000E+00
  0.00000000E+00  0.00000000E+00  0.00000000E+00
  0.00000000E+00  0.00000000E+00  0.00000000E+00
  0.00000000E+00  0.00000000E+00  0.00000000E+00
  0.00000000E+00  0.00000000E+00  0.00000000E+00
  0.00000000E+00  0.00000000E+00  0.00000000E+00
  0.00000000E+00  0.00000000E+00  0.00000000E+00
  0.00000000E+00  0.00000000E+00  0.00000000E+00
  0.00000000E+00  0.00000000E+00  0.00000000E+00
  0.00000000E+00  0.00000000E+00  0.00000000E+00
  0.00000000E+00  0.00000000E+00  0.00000000E+00
  0.00000000E+00  0.00000000E+00  0.00000000E+00
  0.00000000E+00  0.00000000E+00  0.00000000E+00
  0.00000000E+00  0.00000000E+00  0.00000000E+00
  0.00000000E+00  0.00000000E+00  0.00000000E+00
  0.00000000E+00  0.00000000E+00  0.00000000E+00
