C N H                                   
   1.00000000000000     
    25.0000000000000000    0.0000000000000000    0.0000000000000000
     0.0000000000000000   25.0000000000000000    0.0000000000000000
     0.0000000000000000    0.0000000000000000   25.0000000000000000
   C    N    H 
    10     2     8
Selective dynamics
Direct
  0.4960137744176504  0.4997009282321730  0.3597665966430063   T   T   T
  0.4925192596076567  0.4978111629434407  0.5295701915550469   T   T   T
  0.5396436487190361  0.4952072625907806  0.5601407765324056   T   T   T
  0.5359369227756274  0.4940144073659787  0.6158180866829143   T   T   T
  0.4853904004727902  0.4955235650903805  0.6394722875675594   T   T   T
  0.4406936506610245  0.4980163374437264  0.6059460093092723   T   T   T
  0.4947525891997001  0.4989376123263326  0.4698953313214904   T   T   T
  0.5370976663578519  0.5244372604270753  0.4430529496169390   T   T   T
  0.5376550050880819  0.5247875111424786  0.3872387800916657   T   T   T
  0.4555288093234745  0.4754104997248887  0.3897414606125338   T   T   T
  0.4435424854733775  0.4991539547199897  0.5523556528528111   T   T   T
  0.4543743346317354  0.4747226237712358  0.4433969105794091   T   T   T
  0.5786524245097566  0.4931544430428060  0.5407241519936712   T   T   T
  0.5719829463672335  0.4916081495410863  0.6402924138844858   T   T   T
  0.4804117150160973  0.4946555584683988  0.6827871118651647   T   T   T
  0.4004248218829038  0.4992565362767062  0.6230007562562244   T   T   T
  0.5686596188720231  0.5446014406261449  0.4654020287343490   T   T   T
  0.5698837909101439  0.5446839603834450  0.3655804472090449   T   T   T
  0.4945905668872584  0.4989458808039273  0.3161894202669119   T   T   T
  0.4222445688265790  0.4553719050790022  0.3696276364250967   T   T   T
 
  0.00000000E+00  0.00000000E+00  0.00000000E+00
  0.00000000E+00  0.00000000E+00  0.00000000E+00
  0.00000000E+00  0.00000000E+00  0.00000000E+00
  0.00000000E+00  0.00000000E+00  0.00000000E+00
  0.00000000E+00  0.00000000E+00  0.00000000E+00
  0.00000000E+00  0.00000000E+00  0.00000000E+00
  0.00000000E+00  0.00000000E+00  0.00000000E+00
  0.00000000E+00  0.00000000E+00  0.00000000E+00
  0.00000000E+00  0.00000000E+00  0.00000000E+00
  0.00000000E+00  0.00000000E+00  0.00000000E+00
  0.00000000E+00  0.00000000E+00  0.00000000E+00
  0.00000000E+00  0.00000000E+00  0.00000000E+00
  0.00000000E+00  0.00000000E+00  0.00000000E+00
  0.00000000E+00  0.00000000E+00  0.00000000E+00
  0.00000000E+00  0.00000000E+00  0.00000000E+00
  0.00000000E+00  0.00000000E+00  0.00000000E+00
  0.00000000E+00  0.00000000E+00  0.00000000E+00
  0.00000000E+00  0.00000000E+00  0.00000000E+00
  0.00000000E+00  0.00000000E+00  0.00000000E+00
  0.00000000E+00  0.00000000E+00  0.00000000E+00
