C H                                     
   1.00000000000000     
    40.0000000000000000    0.0000000000000000    0.0000000000000000
     0.0000000000000000   40.0000000000000000    0.0000000000000000
     0.0000000000000000    0.0000000000000000   40.0000000000000000
   C    H 
    12    14
Selective dynamics
Direct
  0.5199271554590226  0.4860829008219696  0.4984078607789115   T   T   T
  0.5468245763711792  0.4641572800020839  0.5056215267008071   T   T   T
  0.5793749579427399  0.4756980163144462  0.5063545184756606   T   T   T
  0.5865243216214964  0.5098196456124171  0.4999332132836756   T   T   T
  0.5608634916240902  0.5320909915580003  0.4936543487497644   T   T   T
  0.5270783128884489  0.5215140872973834  0.4945669934978696   T   T   T
  0.5016168667001750  0.5467854862490285  0.4933013173143124   T   T   T
  0.4702419444511960  0.5449337301360160  0.5069522952316774   T   T   T
  0.4447830506773087  0.5715901914559680  0.5042019813811294   T   T   T
  0.4869590540008062  0.4733925379929929  0.4917813051644515   T   T   T
  0.4745413497662625  0.4435366159028149  0.5033743787680578   T   T   T
  0.4404664881479405  0.4312538819908127  0.4963593311504084   T   T   T
  0.4222655955298436  0.5615750452731163  0.4917746523636737   T   T   T
  0.4362696792007128  0.5792961300734376  0.5292516132816445   T   T   T
  0.4536868434819965  0.5934344105553251  0.4902599608567613   T   T   T
  0.4634809698884723  0.5231130608903527  0.5219726139963754   T   T   T
  0.5092439248614795  0.5706787963333255  0.4823442125771109   T   T   T
  0.5662247171959933  0.5585046477314108  0.4895596641007316   T   T   T
  0.6123463299433141  0.5185266948776359  0.5004121335748835   T   T   T
  0.5998308009235629  0.4582614700757119  0.5108728877233588   T   T   T
  0.5420015751878040  0.4374988567723364  0.5083979525503608   T   T   T
  0.4262215660290707  0.4479526800682905  0.4799435753377423   T   T   T
  0.4418008200631860  0.4060960436986178  0.4850663008701019   T   T   T
  0.4266822932723002  0.4276122673380058  0.5199876849813378   T   T   T
  0.4900826513312566  0.4278953010104374  0.5195510286482730   T   T   T
  0.4706616634403460  0.4886982299680724  0.4760956486408929   T   T   T
 
  0.00000000E+00  0.00000000E+00  0.00000000E+00
  0.00000000E+00  0.00000000E+00  0.00000000E+00
  0.00000000E+00  0.00000000E+00  0.00000000E+00
  0.00000000E+00  0.00000000E+00  0.00000000E+00
  0.00000000E+00  0.00000000E+00  0.00000000E+00
  0.00000000E+00  0.00000000E+00  0.00000000E+00
  0.00000000E+00  0.00000000E+00  0.00000000E+00
  0.00000000E+00  0.00000000E+00  0.00000000E+00
  0.00000000E+00  0.00000000E+00  0.00000000E+00
  0.00000000E+00  0.00000000E+00  0.00000000E+00
  0.00000000E+00  0.00000000E+00  0.00000000E+00
  0.00000000E+00  0.00000000E+00  0.00000000E+00
  0.00000000E+00  0.00000000E+00  0.00000000E+00
  0.00000000E+00  0.00000000E+00  0.00000000E+00
  0.00000000E+00  0.00000000E+00  0.00000000E+00
  0.00000000E+00  0.00000000E+00  0.00000000E+00
  0.00000000E+00  0.00000000E+00  0.00000000E+00
  0.00000000E+00  0.00000000E+00  0.00000000E+00
  0.00000000E+00  0.00000000E+00  0.00000000E+00
  0.00000000E+00  0.00000000E+00  0.00000000E+00
  0.00000000E+00  0.00000000E+00  0.00000000E+00
  0.00000000E+00  0.00000000E+00  0.00000000E+00
  0.00000000E+00  0.00000000E+00  0.00000000E+00
  0.00000000E+00  0.00000000E+00  0.00000000E+00
  0.00000000E+00  0.00000000E+00  0.00000000E+00
  0.00000000E+00  0.00000000E+00  0.00000000E+00
