C H                                     
   1.00000000000000     
    40.0000000000000000    0.0000000000000000    0.0000000000000000
     0.0000000000000000   40.0000000000000000    0.0000000000000000
     0.0000000000000000    0.0000000000000000   40.0000000000000000
   C    H 
    12    14
Selective dynamics
Direct
  0.5476676698172661  0.4686057147009237  0.4943889290369582   T   T   T
  0.5822264791440843  0.4689738751637640  0.4948270655849663   T   T   T
  0.5993402387404025  0.4989477766398183  0.5012855777061973   T   T   T
  0.5815656870018545  0.5288570948988939  0.5066560248704874   T   T   T
  0.5470463906585230  0.5288793010106688  0.5054346184441313   T   T   T
  0.5290167343929755  0.4986573160546288  0.4996508606361405   T   T   T
  0.4929715820096667  0.4990134854687538  0.4991847021436714   T   T   T
  0.4749747137382513  0.4694413552319536  0.5043901403776517   T   T   T
  0.4383995189971150  0.4677530375968526  0.5077304420430985   T   T   T
  0.4203779938166574  0.5014555036584647  0.5082016797169575   T   T   T
  0.4375958434264685  0.5258924226933001  0.4844465376589296   T   T   T
  0.4741175469202208  0.5312105357808906  0.4947531832417599   T   T   T
  0.4872159518334006  0.5470640318635974  0.4765266031559442   T   T   T
  0.4749162280185292  0.5450745100971948  0.5186842784105574   T   T   T
  0.4246944382159842  0.5501057435284559  0.4842059731229892   T   T   T
  0.4366652077250835  0.5161687969830259  0.4586827115354083   T   T   T
  0.3940148581661533  0.4979990464539792  0.5014650759883238   T   T   T
  0.4207202476672886  0.5116433416935541  0.5337808174813741   T   T   T
  0.4296842639804183  0.4520260766530928  0.4864783644913536   T   T   T
  0.4322658542792664  0.4519260862119773  0.5295416380319753   T   T   T
  0.4884607579376342  0.4458610917581083  0.5069921544092117   T   T   T
  0.5334992485436632  0.5520639274322482  0.5098751691027724   T   T   T
  0.5950544363359276  0.5519340257727299  0.5118440590955018   T   T   T
  0.6265705122594399  0.4990775914053934  0.5021364398794429   T   T   T
  0.5961465555472286  0.4460524469171997  0.4901304293402819   T   T   T
  0.5347890408265163  0.4453148643305542  0.4887065244939059   T   T   T
 
  0.00000000E+00  0.00000000E+00  0.00000000E+00
  0.00000000E+00  0.00000000E+00  0.00000000E+00
  0.00000000E+00  0.00000000E+00  0.00000000E+00
  0.00000000E+00  0.00000000E+00  0.00000000E+00
  0.00000000E+00  0.00000000E+00  0.00000000E+00
  0.00000000E+00  0.00000000E+00  0.00000000E+00
  0.00000000E+00  0.00000000E+00  0.00000000E+00
  0.00000000E+00  0.00000000E+00  0.00000000E+00
  0.00000000E+00  0.00000000E+00  0.00000000E+00
  0.00000000E+00  0.00000000E+00  0.00000000E+00
  0.00000000E+00  0.00000000E+00  0.00000000E+00
  0.00000000E+00  0.00000000E+00  0.00000000E+00
  0.00000000E+00  0.00000000E+00  0.00000000E+00
  0.00000000E+00  0.00000000E+00  0.00000000E+00
  0.00000000E+00  0.00000000E+00  0.00000000E+00
  0.00000000E+00  0.00000000E+00  0.00000000E+00
  0.00000000E+00  0.00000000E+00  0.00000000E+00
  0.00000000E+00  0.00000000E+00  0.00000000E+00
  0.00000000E+00  0.00000000E+00  0.00000000E+00
  0.00000000E+00  0.00000000E+00  0.00000000E+00
  0.00000000E+00  0.00000000E+00  0.00000000E+00
  0.00000000E+00  0.00000000E+00  0.00000000E+00
  0.00000000E+00  0.00000000E+00  0.00000000E+00
  0.00000000E+00  0.00000000E+00  0.00000000E+00
  0.00000000E+00  0.00000000E+00  0.00000000E+00
  0.00000000E+00  0.00000000E+00  0.00000000E+00
