C N H                                   
   1.00000000000000     
    40.0000000000000000    0.0000000000000000    0.0000000000000000
     0.0000000000000000   40.0000000000000000    0.0000000000000000
     0.0000000000000000    0.0000000000000000   40.0000000000000000
   C    N    H 
     6     1     7
Selective dynamics
Direct
  0.4949838753870637  0.4689192393510737  0.5000027468679136   T   T   T
  0.5293962058028256  0.4692989602947293  0.5009983370887454   T   T   T
  0.5468355567901710  0.4999990000000025  0.5014124768763537   T   T   T
  0.5293962058028256  0.5307000397052661  0.5009983370887454   T   T   T
  0.4949848753870612  0.5310807606489263  0.5000027468679136   T   T   T
  0.4770439985369350  0.5000000000000000  0.4993550381339844   T   T   T
  0.4437426203294947  0.5000009999999975  0.4981103057002798   T   T   T
  0.4305086623674796  0.5217678616370094  0.4975805796549508   T   T   T
  0.4305076623674822  0.4782341383629927  0.4975805796549508   T   T   T
  0.4810170922534169  0.5544584713862193  0.4996034189955054   T   T   T
  0.5432477334709347  0.5541467461283744  0.5014265567696228   T   T   T
  0.5740726857799316  0.4999990000000025  0.5018999005358964   T   T   T
  0.5432467334709372  0.4458522538716139  0.5014265567696228   T   T   T
  0.4810150922534220  0.4455415286137807  0.4996034189955054   T   T   T
 
  0.00000000E+00  0.00000000E+00  0.00000000E+00
  0.00000000E+00  0.00000000E+00  0.00000000E+00
  0.00000000E+00  0.00000000E+00  0.00000000E+00
  0.00000000E+00  0.00000000E+00  0.00000000E+00
  0.00000000E+00  0.00000000E+00  0.00000000E+00
  0.00000000E+00  0.00000000E+00  0.00000000E+00
  0.00000000E+00  0.00000000E+00  0.00000000E+00
  0.00000000E+00  0.00000000E+00  0.00000000E+00
  0.00000000E+00  0.00000000E+00  0.00000000E+00
  0.00000000E+00  0.00000000E+00  0.00000000E+00
  0.00000000E+00  0.00000000E+00  0.00000000E+00
  0.00000000E+00  0.00000000E+00  0.00000000E+00
  0.00000000E+00  0.00000000E+00  0.00000000E+00
  0.00000000E+00  0.00000000E+00  0.00000000E+00
