C O H                                   
   1.00000000000000     
    40.0000000000000000    0.0000000000000000    0.0000000000000000
     0.0000000000000000   40.0000000000000000    0.0000000000000000
     0.0000000000000000    0.0000000000000000   40.0000000000000000
   C    O    H 
    10     1    12
Selective dynamics
Direct
  0.4857702057959514  0.5200648226435547  0.4999953858967956   T   T   T
  0.4533319415616646  0.5066835413094282  0.4999989964080456   T   T   T
  0.4487268218162654  0.4719434037724071  0.5000022157166129   T   T   T
  0.4770751745076325  0.4512512688552803  0.5000007028512954   T   T   T
  0.5092694689882649  0.4643908314678029  0.4999982669475784   T   T   T
  0.5141131109663633  0.4994059536785684  0.4999960982596079   T   T   T
  0.5471886313713838  0.5153554262961251  0.4999953359277640   T   T   T
  0.5771533256557362  0.5000294212090211  0.5000031553001563   T   T   T
  0.6100023603204079  0.5178436744316457  0.4999999403229012   T   T   T
  0.3941842831148819  0.5173030782348462  0.5000040840224358   T   T   T
  0.4278922500818325  0.5296979636577746  0.4999996565374332   T   T   T
  0.6250289465738845  0.5108450634679045  0.4779894218485694   T   T   T
  0.6250245645681787  0.5108589465115188  0.5220176887986838   T   T   T
  0.6068145658983539  0.5451188929729014  0.4999906313885916   T   T   T
  0.5783477152229750  0.4726760698462158  0.5000112436534749   T   T   T
  0.5467722791768779  0.5427562360976736  0.4999858718592236   T   T   T
  0.5306575044964958  0.4474858701300732  0.4999978352317243   T   T   T
  0.4736175935632545  0.4241865792643935  0.5000021361067724   T   T   T
  0.4238942017602696  0.4608434490418460  0.5000024171208750   T   T   T
  0.3781507833837168  0.5394810824510614  0.5000036841959457   T   T   T
  0.3891582340215649  0.5022873683178162  0.5225172947379306   T   T   T
  0.3891539724329505  0.5022849884094143  0.4774929977348634   T   T   T
  0.4886720647211149  0.5472060679327058  0.4999949391327050   T   T   T
 
  0.00000000E+00  0.00000000E+00  0.00000000E+00
  0.00000000E+00  0.00000000E+00  0.00000000E+00
  0.00000000E+00  0.00000000E+00  0.00000000E+00
  0.00000000E+00  0.00000000E+00  0.00000000E+00
  0.00000000E+00  0.00000000E+00  0.00000000E+00
  0.00000000E+00  0.00000000E+00  0.00000000E+00
  0.00000000E+00  0.00000000E+00  0.00000000E+00
  0.00000000E+00  0.00000000E+00  0.00000000E+00
  0.00000000E+00  0.00000000E+00  0.00000000E+00
  0.00000000E+00  0.00000000E+00  0.00000000E+00
  0.00000000E+00  0.00000000E+00  0.00000000E+00
  0.00000000E+00  0.00000000E+00  0.00000000E+00
  0.00000000E+00  0.00000000E+00  0.00000000E+00
  0.00000000E+00  0.00000000E+00  0.00000000E+00
  0.00000000E+00  0.00000000E+00  0.00000000E+00
  0.00000000E+00  0.00000000E+00  0.00000000E+00
  0.00000000E+00  0.00000000E+00  0.00000000E+00
  0.00000000E+00  0.00000000E+00  0.00000000E+00
  0.00000000E+00  0.00000000E+00  0.00000000E+00
  0.00000000E+00  0.00000000E+00  0.00000000E+00
  0.00000000E+00  0.00000000E+00  0.00000000E+00
  0.00000000E+00  0.00000000E+00  0.00000000E+00
  0.00000000E+00  0.00000000E+00  0.00000000E+00
