C N H                                   
   1.00000000000000     
    40.0000000000000000    0.0000000000000000    0.0000000000000000
     0.0000000000000000   40.0000000000000000    0.0000000000000000
     0.0000000000000000    0.0000000000000000   40.0000000000000000
   C    N    H 
     8     2     4
Selective dynamics
Direct
  0.4698386151849768  0.4902295638279566  0.4999998095492639   T   T   T
  0.4697562919136719  0.5254275324007193  0.5000047861707592   T   T   T
  0.5000009805855791  0.5427247081799458  0.4999999753325174   T   T   T
  0.5302445256544400  0.5254259826060848  0.4999921636671750   T   T   T
  0.5301600935672316  0.4902286216425747  0.4999911737550418   T   T   T
  0.4999990814315127  0.4723722141267078  0.4999928826561391   T   T   T
  0.5611082473187213  0.4724182544535837  0.5000034583048132   T   T   T
  0.4388910613168237  0.4724219580528260  0.4999999050794472   T   T   T
  0.5864806826848378  0.4579551178962051  0.5000230046080596   T   T   T
  0.4135174311477272  0.4579584833562864  0.4999970237212775   T   T   T
  0.4999986201635940  0.4451913165110924  0.4999926830227012   T   T   T
  0.5539075131007645  0.5388560790782804  0.4999917310480110   T   T   T
  0.5000012767437884  0.5699338504181251  0.5000031682458718   T   T   T
  0.4460935791863357  0.5388583174495997  0.5000092348389056   T   T   T
 
  0.00000000E+00  0.00000000E+00  0.00000000E+00
  0.00000000E+00  0.00000000E+00  0.00000000E+00
  0.00000000E+00  0.00000000E+00  0.00000000E+00
  0.00000000E+00  0.00000000E+00  0.00000000E+00
  0.00000000E+00  0.00000000E+00  0.00000000E+00
  0.00000000E+00  0.00000000E+00  0.00000000E+00
  0.00000000E+00  0.00000000E+00  0.00000000E+00
  0.00000000E+00  0.00000000E+00  0.00000000E+00
  0.00000000E+00  0.00000000E+00  0.00000000E+00
  0.00000000E+00  0.00000000E+00  0.00000000E+00
  0.00000000E+00  0.00000000E+00  0.00000000E+00
  0.00000000E+00  0.00000000E+00  0.00000000E+00
  0.00000000E+00  0.00000000E+00  0.00000000E+00
  0.00000000E+00  0.00000000E+00  0.00000000E+00
