C N H                                   
   1.00000000000000     
    40.0000000000000000    0.0000000000000000    0.0000000000000000
     0.0000000000000000   40.0000000000000000    0.0000000000000000
     0.0000000000000000    0.0000000000000000   40.0000000000000000
   C    N    H 
     6     1    15
Selective dynamics
Direct
  0.4424956002746185  0.4713391186700671  0.4926136130434144   T   T   T
  0.4694108269229981  0.4984468641921798  0.4931493252350172   T   T   T
  0.5317705189479797  0.4936852371211112  0.4916949032848353   T   T   T
  0.5399818925290341  0.5311397044901733  0.4911753621072676   T   T   T
  0.5598655338191429  0.4741914852736405  0.5084697720571049   T   T   T
  0.4563827981111517  0.5295697249802632  0.5111665189251424   T   T   T
  0.5002042234531455  0.4849121197308004  0.5080228322954103   T   T   T
  0.5014071511563254  0.4911786066676950  0.5326394705225653   T   T   T
  0.5417582311708963  0.5407819847004599  0.5167406587346310   T   T   T
  0.5209360510759546  0.5455045786658302  0.4779119216655762   T   T   T
  0.5639490956884655  0.5356461223785242  0.4788016463288186   T   T   T
  0.5547141734788070  0.4474128268294025  0.5078455481730790   T   T   T
  0.5837566822347088  0.4789423589877946  0.4961387801833828   T   T   T
  0.5624193735559229  0.4818067799529072  0.5346477167220123   T   T   T
  0.5295440644018541  0.4850241533217523  0.4657389674567244   T   T   T
  0.4747371173585496  0.5497431237882320  0.5111472557591593   T   T   T
  0.4505421511043178  0.5234056275604928  0.5371959310212508   T   T   T
  0.4334048843377888  0.5387842510575733  0.4995825224345998   T   T   T
  0.4753796616984614  0.5051183867778669  0.4672056379765186   T   T   T
  0.4512517099136703  0.4494067539673062  0.4789592863514970   T   T   T
  0.4366054252279802  0.4635286223440073  0.5181586158412287   T   T   T
  0.4194818335382144  0.4804335685419361  0.4809947138807752   T   T   T
 
  0.00000000E+00  0.00000000E+00  0.00000000E+00
  0.00000000E+00  0.00000000E+00  0.00000000E+00
  0.00000000E+00  0.00000000E+00  0.00000000E+00
  0.00000000E+00  0.00000000E+00  0.00000000E+00
  0.00000000E+00  0.00000000E+00  0.00000000E+00
  0.00000000E+00  0.00000000E+00  0.00000000E+00
  0.00000000E+00  0.00000000E+00  0.00000000E+00
  0.00000000E+00  0.00000000E+00  0.00000000E+00
  0.00000000E+00  0.00000000E+00  0.00000000E+00
  0.00000000E+00  0.00000000E+00  0.00000000E+00
  0.00000000E+00  0.00000000E+00  0.00000000E+00
  0.00000000E+00  0.00000000E+00  0.00000000E+00
  0.00000000E+00  0.00000000E+00  0.00000000E+00
  0.00000000E+00  0.00000000E+00  0.00000000E+00
  0.00000000E+00  0.00000000E+00  0.00000000E+00
  0.00000000E+00  0.00000000E+00  0.00000000E+00
  0.00000000E+00  0.00000000E+00  0.00000000E+00
  0.00000000E+00  0.00000000E+00  0.00000000E+00
  0.00000000E+00  0.00000000E+00  0.00000000E+00
  0.00000000E+00  0.00000000E+00  0.00000000E+00
  0.00000000E+00  0.00000000E+00  0.00000000E+00
  0.00000000E+00  0.00000000E+00  0.00000000E+00
