C H                                     
   1.00000000000000     
    40.0000000000000000    0.0000000000000000    0.0000000000000000
     0.0000000000000000   40.0000000000000000    0.0000000000000000
     0.0000000000000000    0.0000000000000000   40.0000000000000000
   C    H 
     8    10
Selective dynamics
Direct
  0.4448461445703825  0.4826312144049137  0.5000008961468367   T   T   T
  0.4751099540298612  0.4654896036298525  0.5000003704904188   T   T   T
  0.5056177813451369  0.4824008386040526  0.4999997848332214   T   T   T
  0.5379483820534812  0.4633201460450310  0.4999986676494927   T   T   T
  0.5056177813451369  0.5175991613959475  0.5000002151667786   T   T   T
  0.5379483820534812  0.5366788539549715  0.5000003323505098   T   T   T
  0.4751099540298612  0.5345103963701475  0.5000006295095787   T   T   T
  0.4448461445703825  0.5173687855950861  0.5000011038531582   T   T   T
  0.5531852428417946  0.4693682125950203  0.5219079667843742   T   T   T
  0.5334883765205634  0.4364244922503536  0.5000008832454910   T   T   T
  0.5531814575474340  0.4693650851406218  0.4780860589576379   T   T   T
  0.5531842428417971  0.5306317874049796  0.4780900332156237   T   T   T
  0.5334883765205634  0.5635755077496463  0.4999981167545045   T   T   T
  0.5531824575474386  0.5306349148593782  0.5219129410423646   T   T   T
  0.4214729501102707  0.5310982554324127  0.5000011064229852   T   T   T
  0.4751507109810586  0.5616592334657798  0.5000010192684741   T   T   T
  0.4751507109810586  0.4383407665342202  0.4999999807315234   T   T   T
  0.4214729501102707  0.4689017445675872  0.5000008935770097   T   T   T
 
  0.00000000E+00  0.00000000E+00  0.00000000E+00
  0.00000000E+00  0.00000000E+00  0.00000000E+00
  0.00000000E+00  0.00000000E+00  0.00000000E+00
  0.00000000E+00  0.00000000E+00  0.00000000E+00
  0.00000000E+00  0.00000000E+00  0.00000000E+00
  0.00000000E+00  0.00000000E+00  0.00000000E+00
  0.00000000E+00  0.00000000E+00  0.00000000E+00
  0.00000000E+00  0.00000000E+00  0.00000000E+00
  0.00000000E+00  0.00000000E+00  0.00000000E+00
  0.00000000E+00  0.00000000E+00  0.00000000E+00
  0.00000000E+00  0.00000000E+00  0.00000000E+00
  0.00000000E+00  0.00000000E+00  0.00000000E+00
  0.00000000E+00  0.00000000E+00  0.00000000E+00
  0.00000000E+00  0.00000000E+00  0.00000000E+00
  0.00000000E+00  0.00000000E+00  0.00000000E+00
  0.00000000E+00  0.00000000E+00  0.00000000E+00
  0.00000000E+00  0.00000000E+00  0.00000000E+00
  0.00000000E+00  0.00000000E+00  0.00000000E+00
