C N H                                   
   1.00000000000000     
    40.0000000000000000    0.0000000000000000    0.0000000000000000
     0.0000000000000000   40.0000000000000000    0.0000000000000000
     0.0000000000000000    0.0000000000000000   40.0000000000000000
   C    N    H 
     8     2     4
Selective dynamics
Direct
  0.4699395117046224  0.4902831440408592  0.4999988096236774   T   T   T
  0.4699028681307816  0.5253173406660515  0.5000029966903764   T   T   T
  0.5000008024711750  0.5425573959166570  0.4999990761487044   T   T   T
  0.5300976017754383  0.5253150069578629  0.4999934307189702   T   T   T
  0.5300601273310163  0.4902804414490579  0.4999939611875132   T   T   T
  0.4999990576855431  0.4725501218395325  0.4999942673246632   T   T   T
  0.5609043007383212  0.4725055631617713  0.5000047637725730   T   T   T
  0.4390941274383360  0.4725092381985868  0.4999990273605948   T   T   T
  0.5861144440375745  0.4581402319673850  0.5000198531199677   T   T   T
  0.4138835626899788  0.4581448893702946  0.4999982238559592   T   T   T
  0.4999983799587203  0.4454930447461783  0.4999931491252724   T   T   T
  0.5536344872620472  0.5386412811369004  0.4999916233796374   T   T   T
  0.5000016542774735  0.5696204756608940  0.5000024557722036   T   T   T
  0.4463670744989767  0.5386438248879706  0.5000093619198916   T   T   T
 
  0.00000000E+00  0.00000000E+00  0.00000000E+00
  0.00000000E+00  0.00000000E+00  0.00000000E+00
  0.00000000E+00  0.00000000E+00  0.00000000E+00
  0.00000000E+00  0.00000000E+00  0.00000000E+00
  0.00000000E+00  0.00000000E+00  0.00000000E+00
  0.00000000E+00  0.00000000E+00  0.00000000E+00
  0.00000000E+00  0.00000000E+00  0.00000000E+00
  0.00000000E+00  0.00000000E+00  0.00000000E+00
  0.00000000E+00  0.00000000E+00  0.00000000E+00
  0.00000000E+00  0.00000000E+00  0.00000000E+00
  0.00000000E+00  0.00000000E+00  0.00000000E+00
  0.00000000E+00  0.00000000E+00  0.00000000E+00
  0.00000000E+00  0.00000000E+00  0.00000000E+00
  0.00000000E+00  0.00000000E+00  0.00000000E+00
