C H                                     
   1.00000000000000     
    40.0000000000000000    0.0000000000000000    0.0000000000000000
     0.0000000000000000   40.0000000000000000    0.0000000000000000
     0.0000000000000000    0.0000000000000000   40.0000000000000000
   C    H 
    12    14
Selective dynamics
Direct
  0.5119149090302565  0.4671466189380984  0.4999978384696169   T   T   T
  0.5350763665358088  0.4943164242350409  0.4999978257507272   T   T   T
  0.5219877345833140  0.5275172456477334  0.4999942616113973   T   T   T
  0.4880853815080564  0.5328526110858779  0.4999894741803698   T   T   T
  0.4649231711347725  0.5056827932537086  0.4999899024570981   T   T   T
  0.4780127505431662  0.4724818481637395  0.4999957680415645   T   T   T
  0.4299596136873198  0.5132858234764088  0.4999887329389963   T   T   T
  0.4041957384299233  0.4907035943659668  0.5000074495203364   T   T   T
  0.3685455328786140  0.5002018209734171  0.5000079568188145   T   T   T
  0.5700404103277446  0.4867144205094088  0.5000021527009861   T   T   T
  0.5958037108903935  0.5092969177570016  0.5000024180159268   T   T   T
  0.6314542577213168  0.4997989070667571  0.5000059101096547   T   T   T
  0.4611729564915011  0.4510812580979284  0.4999918573577200   T   T   T
  0.3557870312680508  0.4891852110053857  0.4781759707240167   T   T   T
  0.3647735591766310  0.5273279193262814  0.4999861518053161   T   T   T
  0.3558033168470044  0.4892257832640898  0.5218708043539892   T   T   T
  0.4096724206991590  0.4639229752558273  0.5000252717150234   T   T   T
  0.4234687307840528  0.5398508377100033  0.4999696167300080   T   T   T
  0.4782804326463784  0.5582941683913600  0.4999823227235760   T   T   T
  0.5388267449089967  0.5489180374946793  0.4999928633814233   T   T   T
  0.6442030125133579  0.5107985885749365  0.5218532004356868   T   T   T
  0.6442070261940689  0.5107918537660132  0.4781583328487194   T   T   T
  0.6352267752481480  0.4726728577543536  0.5000118156014168   T   T   T
  0.5903272565810217  0.5360772918593658  0.4999994781537765   T   T   T
  0.5765312747213640  0.4601499274320566  0.5000040376066266   T   T   T
  0.5217198846495718  0.4417052645945791  0.4999975859471437   T   T   T
 
  0.00000000E+00  0.00000000E+00  0.00000000E+00
  0.00000000E+00  0.00000000E+00  0.00000000E+00
  0.00000000E+00  0.00000000E+00  0.00000000E+00
  0.00000000E+00  0.00000000E+00  0.00000000E+00
  0.00000000E+00  0.00000000E+00  0.00000000E+00
  0.00000000E+00  0.00000000E+00  0.00000000E+00
  0.00000000E+00  0.00000000E+00  0.00000000E+00
  0.00000000E+00  0.00000000E+00  0.00000000E+00
  0.00000000E+00  0.00000000E+00  0.00000000E+00
  0.00000000E+00  0.00000000E+00  0.00000000E+00
  0.00000000E+00  0.00000000E+00  0.00000000E+00
  0.00000000E+00  0.00000000E+00  0.00000000E+00
  0.00000000E+00  0.00000000E+00  0.00000000E+00
  0.00000000E+00  0.00000000E+00  0.00000000E+00
  0.00000000E+00  0.00000000E+00  0.00000000E+00
  0.00000000E+00  0.00000000E+00  0.00000000E+00
  0.00000000E+00  0.00000000E+00  0.00000000E+00
  0.00000000E+00  0.00000000E+00  0.00000000E+00
  0.00000000E+00  0.00000000E+00  0.00000000E+00
  0.00000000E+00  0.00000000E+00  0.00000000E+00
  0.00000000E+00  0.00000000E+00  0.00000000E+00
  0.00000000E+00  0.00000000E+00  0.00000000E+00
  0.00000000E+00  0.00000000E+00  0.00000000E+00
  0.00000000E+00  0.00000000E+00  0.00000000E+00
  0.00000000E+00  0.00000000E+00  0.00000000E+00
  0.00000000E+00  0.00000000E+00  0.00000000E+00
