C N H                                   
   1.00000000000000     
    40.0000000000000000    0.0000000000000000    0.0000000000000000
     0.0000000000000000   40.0000000000000000    0.0000000000000000
     0.0000000000000000    0.0000000000000000   40.0000000000000000
   C    N    H 
     6     1    15
Selective dynamics
Direct
  0.4747355011151472  0.5012828816494668  0.5212999678890781   T   T   T
  0.4404674431971378  0.4979495873786074  0.5037070227563607   T   T   T
  0.5150606632770699  0.4754055238483634  0.4796349212697995   T   T   T
  0.5140148774130796  0.4424945171547878  0.4985718403228111   T   T   T
  0.5128725066617829  0.5371676290474938  0.4872929065896109   T   T   T
  0.5431260306785133  0.5474638030249201  0.5089128134218412   T   T   T
  0.5012359126145547  0.5042249103042876  0.4968895395282488   T   T   T
  0.4212097688054512  0.4964311906800009  0.5231559774843764   T   T   T
  0.4393166618552025  0.4752508854503876  0.4883860342814045   T   T   T
  0.4353779306695623  0.5197880293674464  0.4879398300100818   T   T   T
  0.4794008072086473  0.4793257295068347  0.5370797136611685   T   T   T
  0.4751477818352788  0.5238221257049531  0.5369472953583740   T   T   T
  0.4884545066233528  0.4338626296700084  0.5034553019934073   T   T   T
  0.5262676087504257  0.4234688836130022  0.4830960018632731   T   T   T
  0.5277173991647408  0.4441737435163191  0.5222895663554116   T   T   T
  0.5010332038266404  0.4733776940256255  0.4557502808426017   T   T   T
  0.5407102801679902  0.4821721395565732  0.4722727567887237   T   T   T
  0.5638793332838994  0.5298084938171702  0.5058286960544700   T   T   T
  0.5363363516176434  0.5488696919948781  0.5354329250583681   T   T   T
  0.5513883911894740  0.5722349264057948  0.5005764341145463   T   T   T
  0.5200039019898464  0.5364579001922798  0.4607806894808390   T   T   T
  0.4922441380545141  0.5549680840907969  0.4906994848751673   T   T   T
 
  0.00000000E+00  0.00000000E+00  0.00000000E+00
  0.00000000E+00  0.00000000E+00  0.00000000E+00
  0.00000000E+00  0.00000000E+00  0.00000000E+00
  0.00000000E+00  0.00000000E+00  0.00000000E+00
  0.00000000E+00  0.00000000E+00  0.00000000E+00
  0.00000000E+00  0.00000000E+00  0.00000000E+00
  0.00000000E+00  0.00000000E+00  0.00000000E+00
  0.00000000E+00  0.00000000E+00  0.00000000E+00
  0.00000000E+00  0.00000000E+00  0.00000000E+00
  0.00000000E+00  0.00000000E+00  0.00000000E+00
  0.00000000E+00  0.00000000E+00  0.00000000E+00
  0.00000000E+00  0.00000000E+00  0.00000000E+00
  0.00000000E+00  0.00000000E+00  0.00000000E+00
  0.00000000E+00  0.00000000E+00  0.00000000E+00
  0.00000000E+00  0.00000000E+00  0.00000000E+00
  0.00000000E+00  0.00000000E+00  0.00000000E+00
  0.00000000E+00  0.00000000E+00  0.00000000E+00
  0.00000000E+00  0.00000000E+00  0.00000000E+00
  0.00000000E+00  0.00000000E+00  0.00000000E+00
  0.00000000E+00  0.00000000E+00  0.00000000E+00
  0.00000000E+00  0.00000000E+00  0.00000000E+00
  0.00000000E+00  0.00000000E+00  0.00000000E+00
