C H                                     
   1.00000000000000     
    40.0000000000000000    0.0000000000000000    0.0000000000000000
     0.0000000000000000   40.0000000000000000    0.0000000000000000
     0.0000000000000000    0.0000000000000000   40.0000000000000000
   C    H 
    12    14
Selective dynamics
Direct
  0.5474370984729066  0.4686658639684920  0.4946700577912178   T   T   T
  0.5818288000197102  0.4690654348981444  0.4950101720683892   T   T   T
  0.5988650577539831  0.4989631305207390  0.5012526649637302   T   T   T
  0.5811612981493113  0.5287802027956936  0.5065114915893071   T   T   T
  0.5468134052004350  0.5288168652059630  0.5052764145172384   T   T   T
  0.5288784870727561  0.4986500348494005  0.4997163372422477   T   T   T
  0.4930376422789450  0.4990316094017669  0.4992635616613544   T   T   T
  0.4751162152622273  0.4695065485033623  0.5043483264695205   T   T   T
  0.4385792363035859  0.4677436490108795  0.5074789961329360   T   T   T
  0.4207518411638206  0.5014382727536291  0.5082326570095961   T   T   T
  0.4378868539166273  0.5257857060191727  0.4845275626234432   T   T   T
  0.4742589893343307  0.5311628694995063  0.4948896789686258   T   T   T
  0.4873335969551572  0.5468985391079532  0.4767937780180635   T   T   T
  0.4749822849751001  0.5448640495198812  0.5187206070486253   T   T   T
  0.4250529111646420  0.5498349940764761  0.4843176713747114   T   T   T
  0.4370388207887057  0.5160849308409510  0.4589323563231212   T   T   T
  0.3945180778184750  0.4980946272584453  0.5016131718373391   T   T   T
  0.4212802285733887  0.5114861823376234  0.5336856459076394   T   T   T
  0.4299554532510674  0.4524750168089009  0.4861256862606830   T   T   T
  0.4324326163191778  0.4519728980856438  0.5290778257901637   T   T   T
  0.4886182005243468  0.4461635720265265  0.5070023625709754   T   T   T
  0.5333056780329488  0.5518552054202601  0.5095480567797441   T   T   T
  0.5945828704919746  0.5517264766536487  0.5115729696398911   T   T   T
  0.6259277096714874  0.4991431845055141  0.5019475779537910   T   T   T
  0.5956882937512149  0.4463007852497289  0.4903318533581748   T   T   T
  0.5346663327536934  0.4454883506817279  0.4891525160994564   T   T   T
 
  0.00000000E+00  0.00000000E+00  0.00000000E+00
  0.00000000E+00  0.00000000E+00  0.00000000E+00
  0.00000000E+00  0.00000000E+00  0.00000000E+00
  0.00000000E+00  0.00000000E+00  0.00000000E+00
  0.00000000E+00  0.00000000E+00  0.00000000E+00
  0.00000000E+00  0.00000000E+00  0.00000000E+00
  0.00000000E+00  0.00000000E+00  0.00000000E+00
  0.00000000E+00  0.00000000E+00  0.00000000E+00
  0.00000000E+00  0.00000000E+00  0.00000000E+00
  0.00000000E+00  0.00000000E+00  0.00000000E+00
  0.00000000E+00  0.00000000E+00  0.00000000E+00
  0.00000000E+00  0.00000000E+00  0.00000000E+00
  0.00000000E+00  0.00000000E+00  0.00000000E+00
  0.00000000E+00  0.00000000E+00  0.00000000E+00
  0.00000000E+00  0.00000000E+00  0.00000000E+00
  0.00000000E+00  0.00000000E+00  0.00000000E+00
  0.00000000E+00  0.00000000E+00  0.00000000E+00
  0.00000000E+00  0.00000000E+00  0.00000000E+00
  0.00000000E+00  0.00000000E+00  0.00000000E+00
  0.00000000E+00  0.00000000E+00  0.00000000E+00
  0.00000000E+00  0.00000000E+00  0.00000000E+00
  0.00000000E+00  0.00000000E+00  0.00000000E+00
  0.00000000E+00  0.00000000E+00  0.00000000E+00
  0.00000000E+00  0.00000000E+00  0.00000000E+00
  0.00000000E+00  0.00000000E+00  0.00000000E+00
  0.00000000E+00  0.00000000E+00  0.00000000E+00
