C N H                                   
   1.00000000000000     
    40.0000000000000000    0.0000000000000000    0.0000000000000000
     0.0000000000000000   40.0000000000000000    0.0000000000000000
     0.0000000000000000    0.0000000000000000   40.0000000000000000
   C    N    H 
     8     1    11
Selective dynamics
Direct
  0.4801289677591640  0.5308171312975176  0.5001144875277532   T   T   T
  0.4456206669686438  0.5304809878037915  0.5003258696589015   T   T   T
  0.4280734432539717  0.5000017384078603  0.5004473770836455   T   T   T
  0.4456199497480355  0.4695223008954201  0.5003193600097049   T   T   T
  0.4801260680900938  0.4691837759788342  0.5001108476821301   T   T   T
  0.4982570272757769  0.4999994317707248  0.4999903017954495   T   T   T
  0.5511698779667284  0.5313269139875558  0.4996947156669620   T   T   T
  0.5511697927743597  0.4686705914175420  0.4997028245659152   T   T   T
  0.5323030105092741  0.4999992856349991  0.4997749203080062   T   T   T
  0.5778594187043566  0.5257020089839415  0.4994851028401897   T   T   T
  0.5449561233776592  0.5461349175198151  0.4774182688189725   T   T   T
  0.5452918843107568  0.5460213192532706  0.5221415345441969   T   T   T
  0.5778586097221421  0.4742937073144375  0.4995115825270844   T   T   T
  0.5452754347289641  0.4539740139742534  0.5221459668492017   T   T   T
  0.5449678328284335  0.4538648706434998  0.4774226379936835   T   T   T
  0.4932692257145703  0.4453918138474791  0.5000052668251200   T   T   T
  0.4319690711985302  0.4459673556312325  0.5003879267967761   T   T   T
  0.4008410798629001  0.5000025830665891  0.5005851498282965   T   T   T
  0.4319718489445918  0.5540367468292047  0.5004002941188048   T   T   T
  0.4932716662610375  0.5546075057420481  0.5000165645592034   T   T   T
 
  0.00000000E+00  0.00000000E+00  0.00000000E+00
  0.00000000E+00  0.00000000E+00  0.00000000E+00
  0.00000000E+00  0.00000000E+00  0.00000000E+00
  0.00000000E+00  0.00000000E+00  0.00000000E+00
  0.00000000E+00  0.00000000E+00  0.00000000E+00
  0.00000000E+00  0.00000000E+00  0.00000000E+00
  0.00000000E+00  0.00000000E+00  0.00000000E+00
  0.00000000E+00  0.00000000E+00  0.00000000E+00
  0.00000000E+00  0.00000000E+00  0.00000000E+00
  0.00000000E+00  0.00000000E+00  0.00000000E+00
  0.00000000E+00  0.00000000E+00  0.00000000E+00
  0.00000000E+00  0.00000000E+00  0.00000000E+00
  0.00000000E+00  0.00000000E+00  0.00000000E+00
  0.00000000E+00  0.00000000E+00  0.00000000E+00
  0.00000000E+00  0.00000000E+00  0.00000000E+00
  0.00000000E+00  0.00000000E+00  0.00000000E+00
  0.00000000E+00  0.00000000E+00  0.00000000E+00
  0.00000000E+00  0.00000000E+00  0.00000000E+00
  0.00000000E+00  0.00000000E+00  0.00000000E+00
  0.00000000E+00  0.00000000E+00  0.00000000E+00
