C O S H                                 
   1.00000000000000     
    40.0000000000000000    0.0000000000000000    0.0000000000000000
     0.0000000000000000   40.0000000000000000    0.0000000000000000
     0.0000000000000000    0.0000000000000000   40.0000000000000000
   C    O    S    H 
     7     1     1     8
Selective dynamics
Direct
  0.5513636637515585  0.5014580491396415  0.4977735790231714   T   T   T
  0.5364555331516788  0.5330967567637285  0.4991615442519356   T   T   T
  0.5020100519165875  0.5360874975236999  0.5010394365238761   T   T   T
  0.4817699825054683  0.5075897867016875  0.5019012962204231   T   T   T
  0.4964377390157684  0.4759484858345621  0.5009678556737727   T   T   T
  0.5311027742093665  0.4731168431756335  0.4987613439893029   T   T   T
  0.4265254115990876  0.4847316717174434  0.5035209362193740   T   T   T
  0.4481444437049343  0.5132628243302418  0.5035835252794580   T   T   T
  0.5951199129294946  0.4958154455843518  0.4954747598593725   T   T   T
  0.5422422245926650  0.4484092397528006  0.4976703127983544   T   T   T
  0.4814307870572587  0.4534519425244087  0.5016644874260431   T   T   T
  0.4012605012255105  0.4947052644345300  0.5043700819345396   T   T   T
  0.4299391047976100  0.4700000383388145  0.4807412555367748   T   T   T
  0.4310405771063825  0.4690018647021267  0.5254169071159867   T   T   T
  0.4903476884395040  0.5605446594212558  0.5018905358332972   T   T   T
  0.5517436850870375  0.5554705501044671  0.4987000383288817   T   T   T
  0.6030639189100704  0.5273100799506256  0.4873601039854276   T   T   T
 
  0.00000000E+00  0.00000000E+00  0.00000000E+00
  0.00000000E+00  0.00000000E+00  0.00000000E+00
  0.00000000E+00  0.00000000E+00  0.00000000E+00
  0.00000000E+00  0.00000000E+00  0.00000000E+00
  0.00000000E+00  0.00000000E+00  0.00000000E+00
  0.00000000E+00  0.00000000E+00  0.00000000E+00
  0.00000000E+00  0.00000000E+00  0.00000000E+00
  0.00000000E+00  0.00000000E+00  0.00000000E+00
  0.00000000E+00  0.00000000E+00  0.00000000E+00
  0.00000000E+00  0.00000000E+00  0.00000000E+00
  0.00000000E+00  0.00000000E+00  0.00000000E+00
  0.00000000E+00  0.00000000E+00  0.00000000E+00
  0.00000000E+00  0.00000000E+00  0.00000000E+00
  0.00000000E+00  0.00000000E+00  0.00000000E+00
  0.00000000E+00  0.00000000E+00  0.00000000E+00
  0.00000000E+00  0.00000000E+00  0.00000000E+00
  0.00000000E+00  0.00000000E+00  0.00000000E+00
