C N S H                                 
   1.00000000000000     
    40.0000000000000000    0.0000000000000000    0.0000000000000000
     0.0000000000000000   40.0000000000000000    0.0000000000000000
     0.0000000000000000    0.0000000000000000   40.0000000000000000
   C    N    S    H 
    16     3     1    18
Selective dynamics
Direct
  0.4659401509641852  0.5047780273875636  0.4999112081775138   T   T   T
  0.4343951167627646  0.5190787451661592  0.4998109363789113   T   T   T
  0.4052395988654008  0.4987957686859478  0.4996987209035622   T   T   T
  0.4095031489441936  0.4630849030524943  0.4997137237817590   T   T   T
  0.4407562787862012  0.4491712757958196  0.4998008027460734   T   T   T
  0.4705217394912389  0.4689879163872727  0.4999064861232074   T   T   T
  0.5294791323827474  0.4689908285759442  0.5000877005023887   T   T   T
  0.5592450904967435  0.4491747600929280  0.5001813805663521   T   T   T
  0.5904968952771822  0.4630899904217201  0.5002797894328648   T   T   T
  0.5947593748276547  0.4988007339176369  0.5003174529770997   T   T   T
  0.5656041028799736  0.5190860752364801  0.5002203833287229   T   T   T
  0.5340590307263986  0.5047814185929804  0.5001064684630012   T   T   T
  0.6295177824249789  0.5490160752282652  0.5004725064551591   T   T   T
  0.6556604228982175  0.4918244645168422  0.5005139032178221   T   T   T
  0.3443401781807649  0.4918172473483877  0.4994908864277879   T   T   T
  0.3704823553098932  0.5490098016179727  0.4995221250894344   T   T   T
  0.5000015061230835  0.4529818817679180  0.4999907473494048   T   T   T
  0.6255982771737103  0.5126759539223814  0.5004472385416684   T   T   T
  0.3744016031454063  0.5126694387421391  0.4995754111502374   T   T   T
  0.4999993500739722  0.5315585300763380  0.5000146224032687   T   T   T
  0.4437992416980168  0.4220804670062375  0.4998001797340689   T   T   T
  0.5677806921343468  0.5462010217851907  0.5002499445159657   T   T   T
  0.6181331060710181  0.5601714756276628  0.4780540641708161   T   T   T
  0.6178839396297588  0.5601641850369620  0.5227652553493758   T   T   T
  0.6561443647203288  0.5550941650621259  0.5006263364664469   T   T   T
  0.6776080208158624  0.5080888647694006  0.5006597345768066   T   T   T
  0.6565403148487131  0.4758113845267206  0.5228409745728140   T   T   T
  0.6567300818667965  0.4759526094515454  0.4780923641770358   T   T   T
  0.6122482204044940  0.4467738799952558  0.5003486275132937   T   T   T
  0.5562035772283910  0.4220836893541423  0.5001591421167098   T   T   T
  0.3877523949149855  0.4467678229505367  0.4996266151051540   T   T   T
  0.3432951179150695  0.4758911283680988  0.5218746140121892   T   T   T
  0.3434356128888407  0.4758579309179981  0.4771255581523712   T   T   T
  0.3223910168090472  0.5080807906839415  0.4994099164802101   T   T   T
  0.3818751648853475  0.5601860740859198  0.5219255303410976   T   T   T
  0.3821061132959109  0.5601383911293044  0.4772138051582211   T   T   T
  0.3438556732606800  0.5550879512030085  0.4993737950835996   T   T   T
  0.4322162108776876  0.5461943315127498  0.4997940484575782   T   T   T
 
  0.00000000E+00  0.00000000E+00  0.00000000E+00
  0.00000000E+00  0.00000000E+00  0.00000000E+00
  0.00000000E+00  0.00000000E+00  0.00000000E+00
  0.00000000E+00  0.00000000E+00  0.00000000E+00
  0.00000000E+00  0.00000000E+00  0.00000000E+00
  0.00000000E+00  0.00000000E+00  0.00000000E+00
  0.00000000E+00  0.00000000E+00  0.00000000E+00
  0.00000000E+00  0.00000000E+00  0.00000000E+00
  0.00000000E+00  0.00000000E+00  0.00000000E+00
  0.00000000E+00  0.00000000E+00  0.00000000E+00
  0.00000000E+00  0.00000000E+00  0.00000000E+00
  0.00000000E+00  0.00000000E+00  0.00000000E+00
  0.00000000E+00  0.00000000E+00  0.00000000E+00
  0.00000000E+00  0.00000000E+00  0.00000000E+00
  0.00000000E+00  0.00000000E+00  0.00000000E+00
  0.00000000E+00  0.00000000E+00  0.00000000E+00
  0.00000000E+00  0.00000000E+00  0.00000000E+00
  0.00000000E+00  0.00000000E+00  0.00000000E+00
  0.00000000E+00  0.00000000E+00  0.00000000E+00
  0.00000000E+00  0.00000000E+00  0.00000000E+00
  0.00000000E+00  0.00000000E+00  0.00000000E+00
  0.00000000E+00  0.00000000E+00  0.00000000E+00
  0.00000000E+00  0.00000000E+00  0.00000000E+00
  0.00000000E+00  0.00000000E+00  0.00000000E+00
  0.00000000E+00  0.00000000E+00  0.00000000E+00
  0.00000000E+00  0.00000000E+00  0.00000000E+00
  0.00000000E+00  0.00000000E+00  0.00000000E+00
  0.00000000E+00  0.00000000E+00  0.00000000E+00
  0.00000000E+00  0.00000000E+00  0.00000000E+00
  0.00000000E+00  0.00000000E+00  0.00000000E+00
  0.00000000E+00  0.00000000E+00  0.00000000E+00
  0.00000000E+00  0.00000000E+00  0.00000000E+00
  0.00000000E+00  0.00000000E+00  0.00000000E+00
  0.00000000E+00  0.00000000E+00  0.00000000E+00
  0.00000000E+00  0.00000000E+00  0.00000000E+00
  0.00000000E+00  0.00000000E+00  0.00000000E+00
  0.00000000E+00  0.00000000E+00  0.00000000E+00
  0.00000000E+00  0.00000000E+00  0.00000000E+00
