!PBE0 def2-SV(p) Opt Freq d3 TightSCF SlowConv RIJCOSX defgrid2
 
%pal
nprocs 4
end
 
%scf
MaxIter 1500
end
 
%maxcore 3000
 

 
* xyz 1 2
C    -1.2787745    1.1929184   -0.0077065 
C    -2.6112769    1.3098326   -0.3328449 
C    -3.4368767    0.1893677   -0.3624909 
C    -2.9071699   -1.0617349   -0.0605933 
C    -1.5753408   -1.1992902    0.2575077 
C    -0.7221164   -0.0723765    0.2849601 
N     0.5973069   -0.2175187    0.6165718 
C     1.3608522   -1.3746978    0.2562821 
H     1.9876000   -1.6872075    1.0960671 
H     0.7336613   -2.1984154   -0.0776734 
C     2.3055379   -0.9612175   -0.9198823 
H     1.6875570   -0.6940283   -1.7870332 
H     2.9690479   -1.7897037   -1.1666593 
O     3.1114581    0.1012369   -0.5213396 
C     2.3798245    1.2348477   -0.1703363 
H     3.0970376    1.9952239    0.1376155 
H     1.7761324    1.5954559   -1.0132780 
C     1.4349854    0.8721783    1.0169107 
H     0.8584294    1.7368465    1.3385516 
H     2.0720827    0.5372800    1.8417253 
H    -1.2066681   -2.1688391    0.5509844 
H    -3.5465449   -1.9303601   -0.0591190 
H    -4.4814561    0.2917974   -0.6087926 
H    -3.0143659    2.2801697   -0.5766363 
H    -0.6612969    2.0754697   -0.0346095
*
