C N O H                                 
   1.00000000000000     
    40.0000000000000000    0.0000000000000000    0.0000000000000000
     0.0000000000000000   40.0000000000000000    0.0000000000000000
     0.0000000000000000    0.0000000000000000   40.0000000000000000
   C    N    O    H 
    10     1     1    17
Selective dynamics
Direct
  0.4704508238419676  0.4683054612976951  0.5039419012572999   T   T   T
  0.4915908497878957  0.4992808055673081  0.5088668926737731   T   T   T
  0.4786818770129544  0.5300160774618345  0.5038513760059073   T   T   T
  0.4428450137402697  0.5365967649371777  0.4946317266201164   T   T   T
  0.4247391805998996  0.5053085518193557  0.4825041638056956   T   T   T
  0.4330871748523137  0.4759177135354459  0.5052040957310215   T   T   T
  0.5461685544892876  0.5211088955820966  0.5280061138945453   T   T   T
  0.5654758288281291  0.5314051642403955  0.4968700687300642   T   T   T
  0.5625406257013736  0.4762963709595107  0.4765495953471476   T   T   T
  0.5431095023768987  0.4652683636386475  0.5073622577202985   T   T   T
  0.5238258922894579  0.4930819576447582  0.5213666367552091   T   T   T
  0.5842092623144270  0.5036450680456780  0.4842054292296570   T   T   T
  0.4259829846845947  0.4820694730041326  0.5309560567140558   T   T   T
  0.4189221940755766  0.4536371747317577  0.4980888154894285   T   T   T
  0.4327322389961263  0.4993804937510979  0.4569563790742873   T   T   T
  0.3977517252171999  0.5096458201601256  0.4816766956859593   T   T   T
  0.4293909805804638  0.5469810928234475  0.5162872928784333   T   T   T
  0.4417492619846042  0.5561084872773712  0.4754255693547695   T   T   T
  0.4941682020010043  0.5519881145062576  0.5073321148409020   T   T   T
  0.5320548577540890  0.5419923333257863  0.5383926481879213   T   T   T
  0.5836540781016620  0.5509443110584364  0.5025233391903335   T   T   T
  0.5482996657042978  0.5404498555309452  0.4774172593573964   T   T   T
  0.5450366534449769  0.4837272712217119  0.4566229819631059   T   T   T
  0.5607914481612000  0.4567468188142862  0.5264673182291267   T   T   T
  0.5267255398422056  0.4444155102685169  0.5011857466077557   T   T   T
  0.5785234307718109  0.4562121802036527  0.4672775528601109   T   T   T
  0.5641772316768146  0.5128894399964938  0.5469539029690799   T   T   T
  0.4763987675537034  0.4565750885115671  0.4798420056545618   T   T   T
  0.4769181536148047  0.4500063400844856  0.5232370631720505   T   T   T
 
  0.00000000E+00  0.00000000E+00  0.00000000E+00
  0.00000000E+00  0.00000000E+00  0.00000000E+00
  0.00000000E+00  0.00000000E+00  0.00000000E+00
  0.00000000E+00  0.00000000E+00  0.00000000E+00
  0.00000000E+00  0.00000000E+00  0.00000000E+00
  0.00000000E+00  0.00000000E+00  0.00000000E+00
  0.00000000E+00  0.00000000E+00  0.00000000E+00
  0.00000000E+00  0.00000000E+00  0.00000000E+00
  0.00000000E+00  0.00000000E+00  0.00000000E+00
  0.00000000E+00  0.00000000E+00  0.00000000E+00
  0.00000000E+00  0.00000000E+00  0.00000000E+00
  0.00000000E+00  0.00000000E+00  0.00000000E+00
  0.00000000E+00  0.00000000E+00  0.00000000E+00
  0.00000000E+00  0.00000000E+00  0.00000000E+00
  0.00000000E+00  0.00000000E+00  0.00000000E+00
  0.00000000E+00  0.00000000E+00  0.00000000E+00
  0.00000000E+00  0.00000000E+00  0.00000000E+00
  0.00000000E+00  0.00000000E+00  0.00000000E+00
  0.00000000E+00  0.00000000E+00  0.00000000E+00
  0.00000000E+00  0.00000000E+00  0.00000000E+00
  0.00000000E+00  0.00000000E+00  0.00000000E+00
  0.00000000E+00  0.00000000E+00  0.00000000E+00
  0.00000000E+00  0.00000000E+00  0.00000000E+00
  0.00000000E+00  0.00000000E+00  0.00000000E+00
  0.00000000E+00  0.00000000E+00  0.00000000E+00
  0.00000000E+00  0.00000000E+00  0.00000000E+00
  0.00000000E+00  0.00000000E+00  0.00000000E+00
  0.00000000E+00  0.00000000E+00  0.00000000E+00
  0.00000000E+00  0.00000000E+00  0.00000000E+00
