C Cl O H                                
   1.00000000000000     
    40.0000000000000000    0.0000000000000000    0.0000000000000000
     0.0000000000000000   40.0000000000000000    0.0000000000000000
     0.0000000000000000    0.0000000000000000   40.0000000000000000
   C    Cl   O    H 
     7     1     1     5
Selective dynamics
Direct
  0.4971134467791712  0.4688896749883523  0.4999881427216463   T   T   T
  0.4631055256868401  0.4762236343178029  0.4999820395898749   T   T   T
  0.4523546069561272  0.5095596751172177  0.4999946976108973   T   T   T
  0.4757268307439407  0.5355885694688544  0.5000102214515980   T   T   T
  0.5098525002858667  0.5284828338251614  0.5000148689851516   T   T   T
  0.5207462265289623  0.4950649591891254  0.5000020320516015   T   T   T
  0.5562456925201917  0.4851739165201173  0.5000031612012199   T   T   T
  0.5860596331698127  0.5194928420409497  0.5000122381664617   T   T   T
  0.5671175461158637  0.4569800572053209  0.4999983549079003   T   T   T
  0.5280050403540258  0.5487608626007209  0.5000254956663446   T   T   T
  0.4673352066661537  0.5615194859360046  0.5000210307931565   T   T   T
  0.4256809037332867  0.5152393267037588  0.4999953289921637   T   T   T
  0.4448758072409850  0.4559603398411544  0.4999731246111841   T   T   T
  0.5057800332187676  0.4430648222454567  0.4999792632507855   T   T   T
 
  0.00000000E+00  0.00000000E+00  0.00000000E+00
  0.00000000E+00  0.00000000E+00  0.00000000E+00
  0.00000000E+00  0.00000000E+00  0.00000000E+00
  0.00000000E+00  0.00000000E+00  0.00000000E+00
  0.00000000E+00  0.00000000E+00  0.00000000E+00
  0.00000000E+00  0.00000000E+00  0.00000000E+00
  0.00000000E+00  0.00000000E+00  0.00000000E+00
  0.00000000E+00  0.00000000E+00  0.00000000E+00
  0.00000000E+00  0.00000000E+00  0.00000000E+00
  0.00000000E+00  0.00000000E+00  0.00000000E+00
  0.00000000E+00  0.00000000E+00  0.00000000E+00
  0.00000000E+00  0.00000000E+00  0.00000000E+00
  0.00000000E+00  0.00000000E+00  0.00000000E+00
  0.00000000E+00  0.00000000E+00  0.00000000E+00
