C N O H                                 
   1.00000000000000     
    40.0000000000000000    0.0000000000000000    0.0000000000000000
     0.0000000000000000   40.0000000000000000    0.0000000000000000
     0.0000000000000000    0.0000000000000000   40.0000000000000000
   C    N    O    H 
    10     1     1    13
Selective dynamics
Direct
  0.4673644280390544  0.5297028902582759  0.5016016998339279   T   T   T
  0.4337393644816237  0.5330617243108392  0.4927903578578350   T   T   T
  0.4128255830920943  0.5051847763504488  0.4901781287684163   T   T   T
  0.4263544562920200  0.4735807100079705  0.4968795417246650   T   T   T
  0.4597722969557511  0.4698740561166425  0.5059328463983680   T   T   T
  0.4813005515027433  0.4979132206930655  0.5085343017146695   T   T   T
  0.5341952658824327  0.4650832080733264  0.5079115743900617   T   T   T
  0.5558658898252348  0.4746980093069805  0.4778491582722153   T   T   T
  0.5572875561199847  0.5313037796193679  0.4952729979719347   T   T   T
  0.5359346754755018  0.5224981663165915  0.5256756518081687   T   T   T
  0.5143245212757995  0.4938248094601397  0.5189702443091634   T   T   T
  0.5769678245487389  0.5028918153137455  0.4851586953390402   T   T   T
  0.5503314495696755  0.4568674999121577  0.5287054116910784   T   T   T
  0.5180435854440563  0.4440617918569787  0.5010706196629694   T   T   T
  0.5396328361558587  0.4806179978607191  0.4562139839391001   T   T   T
  0.5726272800765861  0.4540638121499876  0.4709678570407229   T   T   T
  0.5750807618878541  0.5513608882796568  0.5011895522194747   T   T   T
  0.5412696520361037  0.5394799553068077  0.4742452010458685   T   T   T
  0.5211665713077490  0.5440199423451862  0.5340436422763666   T   T   T
  0.5527217989382320  0.5155514410112753  0.5464501292828075   T   T   T
  0.4691062891655353  0.4449742799154128  0.5118584757947334   T   T   T
  0.4105658619656775  0.4513554567146836  0.4954216761045618   T   T   T
  0.3866352386606000  0.5079673414733599  0.4831365974743803   T   T   T
  0.4240047906181425  0.5580081929713426  0.4874944344504163   T   T   T
  0.4828784706829511  0.5520552343750283  0.5024482206290369   T   T   T
 
  0.00000000E+00  0.00000000E+00  0.00000000E+00
  0.00000000E+00  0.00000000E+00  0.00000000E+00
  0.00000000E+00  0.00000000E+00  0.00000000E+00
  0.00000000E+00  0.00000000E+00  0.00000000E+00
  0.00000000E+00  0.00000000E+00  0.00000000E+00
  0.00000000E+00  0.00000000E+00  0.00000000E+00
  0.00000000E+00  0.00000000E+00  0.00000000E+00
  0.00000000E+00  0.00000000E+00  0.00000000E+00
  0.00000000E+00  0.00000000E+00  0.00000000E+00
  0.00000000E+00  0.00000000E+00  0.00000000E+00
  0.00000000E+00  0.00000000E+00  0.00000000E+00
  0.00000000E+00  0.00000000E+00  0.00000000E+00
  0.00000000E+00  0.00000000E+00  0.00000000E+00
  0.00000000E+00  0.00000000E+00  0.00000000E+00
  0.00000000E+00  0.00000000E+00  0.00000000E+00
  0.00000000E+00  0.00000000E+00  0.00000000E+00
  0.00000000E+00  0.00000000E+00  0.00000000E+00
  0.00000000E+00  0.00000000E+00  0.00000000E+00
  0.00000000E+00  0.00000000E+00  0.00000000E+00
  0.00000000E+00  0.00000000E+00  0.00000000E+00
  0.00000000E+00  0.00000000E+00  0.00000000E+00
  0.00000000E+00  0.00000000E+00  0.00000000E+00
  0.00000000E+00  0.00000000E+00  0.00000000E+00
  0.00000000E+00  0.00000000E+00  0.00000000E+00
  0.00000000E+00  0.00000000E+00  0.00000000E+00
