!PBE0 def2-SV(p) Opt Freq d3 TightSCF SlowConv RIJCOSX defgrid2
 
%pal
nprocs 4
end
 
%scf
MaxIter 1500
end
 
%maxcore 3000
 

 
* xyz 1 2
C     4.0810299    1.2139773    0.0004481 
C     4.7723044    0.0001644    0.0000296 
C     4.0812441   -1.2137710   -0.0004339 
C     2.7067289   -1.2258045   -0.0004549 
C     1.9972150   -0.0000846   -0.0000480 
C     2.7065141    1.2257626    0.0003860 
H     2.1566886    2.1539320    0.0007119 
C     0.6123673   -0.0001698   -0.0000538 
C    -0.6123672   -0.0001779   -0.0000450 
C    -1.9972145   -0.0000867   -0.0000088 
C    -2.7067383   -1.2258006    0.0004442 
C    -4.0812533   -1.2137554    0.0005153 
C    -4.7723038    0.0001857    0.0000900 
C    -4.0810196    1.2139931   -0.0003854 
C    -2.7065037    1.2257665   -0.0004156 
H    -2.1566694    2.1539309   -0.0007910 
H    -4.6300418    2.1426819   -0.0007351 
H    -5.8515760    0.0002907    0.0001264 
H    -4.6304598   -2.1423351    0.0009035 
H    -2.1570868   -2.1540736    0.0007748 
H     2.1570685   -2.1540723   -0.0008207 
H     4.6304425   -2.1423556   -0.0007796 
H     5.8515765    0.0002607    0.0000615 
H     4.6300600    2.1426614    0.0008259
*
