C Cl O H                                
   1.00000000000000     
    40.0000000000000000    0.0000000000000000    0.0000000000000000
     0.0000000000000000   40.0000000000000000    0.0000000000000000
     0.0000000000000000    0.0000000000000000   40.0000000000000000
   C    Cl   O    H 
     7     1     1     5
Selective dynamics
Direct
  0.4971318762803371  0.4690135399882666  0.4999865925029193   T   T   T
  0.4632720841805241  0.4763210264914007  0.4999817974087837   T   T   T
  0.4525774179961372  0.5095100091857773  0.4999958690214339   T   T   T
  0.4758338960382285  0.5354351600505515  0.5000133838868512   T   T   T
  0.5098235727177268  0.5283756569994341  0.5000144705199114   T   T   T
  0.5206424568255502  0.4950952908227723  0.5000013622937171   T   T   T
  0.5560178930972757  0.4852539999961322  0.5000016878810853   T   T   T
  0.5856439859399692  0.5193119616257342  0.5000114123294533   T   T   T
  0.5668499125469801  0.4572382530966271  0.4999989385829398   T   T   T
  0.5278128333307772  0.5485500399958481  0.5000251220460515   T   T   T
  0.4674594566778941  0.5611921296149556  0.5000221374538919   T   T   T
  0.4260573168354053  0.5151462042858302  0.4999952627309924   T   T   T
  0.4451387364990530  0.4561974856830295  0.4999729468744821   T   T   T
  0.5057375610341226  0.4433602421636244  0.4999790164674942   T   T   T
 
  0.00000000E+00  0.00000000E+00  0.00000000E+00
  0.00000000E+00  0.00000000E+00  0.00000000E+00
  0.00000000E+00  0.00000000E+00  0.00000000E+00
  0.00000000E+00  0.00000000E+00  0.00000000E+00
  0.00000000E+00  0.00000000E+00  0.00000000E+00
  0.00000000E+00  0.00000000E+00  0.00000000E+00
  0.00000000E+00  0.00000000E+00  0.00000000E+00
  0.00000000E+00  0.00000000E+00  0.00000000E+00
  0.00000000E+00  0.00000000E+00  0.00000000E+00
  0.00000000E+00  0.00000000E+00  0.00000000E+00
  0.00000000E+00  0.00000000E+00  0.00000000E+00
  0.00000000E+00  0.00000000E+00  0.00000000E+00
  0.00000000E+00  0.00000000E+00  0.00000000E+00
  0.00000000E+00  0.00000000E+00  0.00000000E+00
