C N S H                                 
   1.00000000000000     
    40.0000000000000000    0.0000000000000000    0.0000000000000000
     0.0000000000000000   40.0000000000000000    0.0000000000000000
     0.0000000000000000    0.0000000000000000   40.0000000000000000
   C    N    S    H 
    16     3     1    18
Selective dynamics
Direct
  0.4659401509641867  0.5047780273875659  0.4999112081775152   T   T   T
  0.4343951167627651  0.5190787451661620  0.4998109363789141   T   T   T
  0.4052395988653998  0.4987957686859446  0.4996987209035595   T   T   T
  0.4095031489441965  0.4630849030524971  0.4997137237817597   T   T   T
  0.4407562787862034  0.4491712757958197  0.4998008027460727   T   T   T
  0.4705217394912395  0.4689879163872703  0.4999064861232085   T   T   T
  0.5294791323827468  0.4689908285759472  0.5000877005023909   T   T   T
  0.5592450904967450  0.4491747600929301  0.5001813805663531   T   T   T
  0.5904968952771839  0.4630899904217216  0.5002797894328666   T   T   T
  0.5947593748276532  0.4988007339176335  0.5003174529771002   T   T   T
  0.5656041028799734  0.5190860752364799  0.5002203833287240   T   T   T
  0.5340590307263966  0.5047814185929838  0.5001064684630023   T   T   T
  0.6295177824249762  0.5490160752282662  0.5004725064551607   T   T   T
  0.6556604228982152  0.4918244645168457  0.5005139032178221   T   T   T
  0.3443401781807651  0.4918172473483864  0.4994908864277861   T   T   T
  0.3704823553098961  0.5490098016179701  0.4995221250894346   T   T   T
  0.5000015061230840  0.4529818817679185  0.4999907473494076   T   T   T
  0.6255982771737081  0.5126759539223826  0.5004472385416676   T   T   T
  0.3744016031454080  0.5126694387421367  0.4995754111502393   T   T   T
  0.4999993500739706  0.5315585300763388  0.5000146224032704   T   T   T
  0.4437992416980165  0.4220804670062392  0.4998001797340663   T   T   T
  0.5677806921343489  0.5462010217851940  0.5002499445159643   T   T   T
  0.6181331060710207  0.5601714756276621  0.4780540641708129   T   T   T
  0.6178839396297562  0.5601641850369603  0.5227652553493769   T   T   T
  0.6561443647203262  0.5550941650621226  0.5006263364664463   T   T   T
  0.6776080208158604  0.5080888647693982  0.5006597345768071   T   T   T
  0.6565403148487121  0.4758113845267218  0.5228409745728158   T   T   T
  0.6567300818667974  0.4759526094515465  0.4780923641770372   T   T   T
  0.6122482204044957  0.4467738799952556  0.5003486275132971   T   T   T
  0.5562035772283878  0.4220836893541389  0.5001591421167078   T   T   T
  0.3877523949149833  0.4467678229505339  0.4996266151051572   T   T   T
  0.3432951179150692  0.4758911283680973  0.5218746140121908   T   T   T
  0.3434356128888396  0.4758579309179964  0.4771255581523732   T   T   T
  0.3223910168090498  0.5080807906839411  0.4994099164802108   T   T   T
  0.3818751648853507  0.5601860740859195  0.5219255303411003   T   T   T
  0.3821061132959116  0.5601383911293070  0.4772138051582218   T   T   T
  0.3438556732606770  0.5550879512030065  0.4993737950835992   T   T   T
  0.4322162108776908  0.5461943315127513  0.4997940484575807   T   T   T
 
  0.00000000E+00  0.00000000E+00  0.00000000E+00
  0.00000000E+00  0.00000000E+00  0.00000000E+00
  0.00000000E+00  0.00000000E+00  0.00000000E+00
  0.00000000E+00  0.00000000E+00  0.00000000E+00
  0.00000000E+00  0.00000000E+00  0.00000000E+00
  0.00000000E+00  0.00000000E+00  0.00000000E+00
  0.00000000E+00  0.00000000E+00  0.00000000E+00
  0.00000000E+00  0.00000000E+00  0.00000000E+00
  0.00000000E+00  0.00000000E+00  0.00000000E+00
  0.00000000E+00  0.00000000E+00  0.00000000E+00
  0.00000000E+00  0.00000000E+00  0.00000000E+00
  0.00000000E+00  0.00000000E+00  0.00000000E+00
  0.00000000E+00  0.00000000E+00  0.00000000E+00
  0.00000000E+00  0.00000000E+00  0.00000000E+00
  0.00000000E+00  0.00000000E+00  0.00000000E+00
  0.00000000E+00  0.00000000E+00  0.00000000E+00
  0.00000000E+00  0.00000000E+00  0.00000000E+00
  0.00000000E+00  0.00000000E+00  0.00000000E+00
  0.00000000E+00  0.00000000E+00  0.00000000E+00
  0.00000000E+00  0.00000000E+00  0.00000000E+00
  0.00000000E+00  0.00000000E+00  0.00000000E+00
  0.00000000E+00  0.00000000E+00  0.00000000E+00
  0.00000000E+00  0.00000000E+00  0.00000000E+00
  0.00000000E+00  0.00000000E+00  0.00000000E+00
  0.00000000E+00  0.00000000E+00  0.00000000E+00
  0.00000000E+00  0.00000000E+00  0.00000000E+00
  0.00000000E+00  0.00000000E+00  0.00000000E+00
  0.00000000E+00  0.00000000E+00  0.00000000E+00
  0.00000000E+00  0.00000000E+00  0.00000000E+00
  0.00000000E+00  0.00000000E+00  0.00000000E+00
  0.00000000E+00  0.00000000E+00  0.00000000E+00
  0.00000000E+00  0.00000000E+00  0.00000000E+00
  0.00000000E+00  0.00000000E+00  0.00000000E+00
  0.00000000E+00  0.00000000E+00  0.00000000E+00
  0.00000000E+00  0.00000000E+00  0.00000000E+00
  0.00000000E+00  0.00000000E+00  0.00000000E+00
  0.00000000E+00  0.00000000E+00  0.00000000E+00
  0.00000000E+00  0.00000000E+00  0.00000000E+00
