C N O H                                 
   1.00000000000000     
    40.0000000000000000    0.0000000000000000    0.0000000000000000
     0.0000000000000000   40.0000000000000000    0.0000000000000000
     0.0000000000000000    0.0000000000000000   40.0000000000000000
   C    N    O    H 
     8     1     3     7
Selective dynamics
Direct
  0.5011472217798403  0.4633309380315476  0.4999857791422236   T   T   T
  0.4666730030331722  0.4633195657850231  0.5000084958195576   T   T   T
  0.4490000103726766  0.4940768187485988  0.5000327520257806   T   T   T
  0.4671446100403516  0.5245248933212479  0.5000351045958537   T   T   T
  0.5017292506411971  0.5240401184374023  0.5000165923447933   T   T   T
  0.5198843313905207  0.4935234168715489  0.4999869836948990   T   T   T
  0.5564460838479888  0.4920082231504707  0.4999589378974063   T   T   T
  0.5762696250502612  0.5243140629334713  0.4999398420368080   T   T   T
  0.4139492005255878  0.4942694260747417  0.5000607552497188   T   T   T
  0.5717276383311442  0.4645854444661025  0.4999543388028090   T   T   T
  0.3982734304976156  0.5223635555547564  0.5000838072304142   T   T   T
  0.3979861064410766  0.4663284678182198  0.5000640797982021   T   T   T
  0.5704888022369519  0.5395819945744895  0.5220502487710886   T   T   T
  0.6030005981241682  0.5184567357815935  0.4998785754849749   T   T   T
  0.5703904482396691  0.5396339513421755  0.4778939220563506   T   T   T
  0.5150317443909856  0.5478294737209962  0.5000215551299773   T   T   T
  0.4534578803866107  0.5480224682230462  0.5000629150967782   T   T   T
  0.4526016183578903  0.4400493255918279  0.5000039571783040   T   T   T
  0.5147973963122939  0.4397451195727656  0.4999603576440627   T   T   T
 
  0.00000000E+00  0.00000000E+00  0.00000000E+00
  0.00000000E+00  0.00000000E+00  0.00000000E+00
  0.00000000E+00  0.00000000E+00  0.00000000E+00
  0.00000000E+00  0.00000000E+00  0.00000000E+00
  0.00000000E+00  0.00000000E+00  0.00000000E+00
  0.00000000E+00  0.00000000E+00  0.00000000E+00
  0.00000000E+00  0.00000000E+00  0.00000000E+00
  0.00000000E+00  0.00000000E+00  0.00000000E+00
  0.00000000E+00  0.00000000E+00  0.00000000E+00
  0.00000000E+00  0.00000000E+00  0.00000000E+00
  0.00000000E+00  0.00000000E+00  0.00000000E+00
  0.00000000E+00  0.00000000E+00  0.00000000E+00
  0.00000000E+00  0.00000000E+00  0.00000000E+00
  0.00000000E+00  0.00000000E+00  0.00000000E+00
  0.00000000E+00  0.00000000E+00  0.00000000E+00
  0.00000000E+00  0.00000000E+00  0.00000000E+00
  0.00000000E+00  0.00000000E+00  0.00000000E+00
  0.00000000E+00  0.00000000E+00  0.00000000E+00
  0.00000000E+00  0.00000000E+00  0.00000000E+00
