C O S H                                 
   1.00000000000000     
    40.0000000000000000    0.0000000000000000    0.0000000000000000
     0.0000000000000000   40.0000000000000000    0.0000000000000000
     0.0000000000000000    0.0000000000000000   40.0000000000000000
   C    O    S    H 
     7     1     1     8
Selective dynamics
Direct
  0.5515039528313278  0.5016133395292670  0.4969177208443886   T   T   T
  0.5363616427086931  0.5338090945874904  0.4983823585008767   T   T   T
  0.5022889876692893  0.5365426155756011  0.5008503912236602   T   T   T
  0.4820688175191672  0.5071983804062654  0.5018097015833202   T   T   T
  0.4970032416073781  0.4749793757356189  0.5009749652278151   T   T   T
  0.5312052475715184  0.4723474208679553  0.4986034734047512   T   T   T
  0.4262575064250506  0.4846583429907267  0.5036797172475259   T   T   T
  0.4493573771734615  0.5126371901621638  0.5034436685579579   T   T   T
  0.5937554582257466  0.4956711113764984  0.4930200446434347   T   T   T
  0.5428488995124306  0.4477140183639816  0.4978691807900342   T   T   T
  0.4817525522338283  0.4524994534119484  0.5021376393385166   T   T   T
  0.4014425297596969  0.4959761170032702  0.5045922186906246   T   T   T
  0.4291611156099949  0.4698917628927546  0.4807398946726503   T   T   T
  0.4304598257721307  0.4691429921163823  0.5259102991904685   T   T   T
  0.4900477874749476  0.5608370455755635  0.5019873517394605   T   T   T
  0.5518528305079512  0.5561905195089429  0.4975040960898794   T   T   T
  0.6026302273973565  0.5282922198955811  0.4915752782546543   T   T   T
 
  0.00000000E+00  0.00000000E+00  0.00000000E+00
  0.00000000E+00  0.00000000E+00  0.00000000E+00
  0.00000000E+00  0.00000000E+00  0.00000000E+00
  0.00000000E+00  0.00000000E+00  0.00000000E+00
  0.00000000E+00  0.00000000E+00  0.00000000E+00
  0.00000000E+00  0.00000000E+00  0.00000000E+00
  0.00000000E+00  0.00000000E+00  0.00000000E+00
  0.00000000E+00  0.00000000E+00  0.00000000E+00
  0.00000000E+00  0.00000000E+00  0.00000000E+00
  0.00000000E+00  0.00000000E+00  0.00000000E+00
  0.00000000E+00  0.00000000E+00  0.00000000E+00
  0.00000000E+00  0.00000000E+00  0.00000000E+00
  0.00000000E+00  0.00000000E+00  0.00000000E+00
  0.00000000E+00  0.00000000E+00  0.00000000E+00
  0.00000000E+00  0.00000000E+00  0.00000000E+00
  0.00000000E+00  0.00000000E+00  0.00000000E+00
  0.00000000E+00  0.00000000E+00  0.00000000E+00
