C N O H                                 
   1.00000000000000     
    40.0000000000000000    0.0000000000000000    0.0000000000000000
     0.0000000000000000   40.0000000000000000    0.0000000000000000
     0.0000000000000000    0.0000000000000000   40.0000000000000000
   C    N    O    H 
     7     1     1     9
Selective dynamics
Direct
  0.5451234953023171  0.5240363534027371  0.4998117323065991   T   T   T
  0.5163999480221076  0.5429421108106481  0.5006494169848451   T   T   T
  0.4852026094642820  0.5274199842233790  0.5009743527738244   T   T   T
  0.4828797568811967  0.4916108826863939  0.5005934177954063   T   T   T
  0.5114200825271018  0.4722620618532030  0.4998073583798929   T   T   T
  0.5426857680216711  0.4880535355098042  0.4992565144554887   T   T   T
  0.4227826240541417  0.4940058570159285  0.5008813122220850   T   T   T
  0.5709456788719720  0.4703809744017770  0.4980656739747606   T   T   T
  0.4537548634857348  0.4754978310654608  0.5009394955012048   T   T   T
  0.5705881223485512  0.4451563750587114  0.4974119772764512   T   T   T
  0.5934828287185813  0.4816771632978855  0.4974888444847427   T   T   T
  0.5093867819925240  0.4452790067555361  0.4994501178840857   T   T   T
  0.4033832486469693  0.4750604593317361  0.5008541409680798   T   T   T
  0.4209237339179704  0.5092768392524937  0.4783775010047753   T   T   T
  0.4207912391526709  0.5093275512399522  0.5233406408309123   T   T   T
  0.4627733036569189  0.5424527873288192  0.5015354239722318   T   T   T
  0.5178919225805796  0.5699429939148916  0.5010302094597505   T   T   T
  0.5695849923547349  0.5356162328506371  0.4995308697248944   T   T   T
 
  0.00000000E+00  0.00000000E+00  0.00000000E+00
  0.00000000E+00  0.00000000E+00  0.00000000E+00
  0.00000000E+00  0.00000000E+00  0.00000000E+00
  0.00000000E+00  0.00000000E+00  0.00000000E+00
  0.00000000E+00  0.00000000E+00  0.00000000E+00
  0.00000000E+00  0.00000000E+00  0.00000000E+00
  0.00000000E+00  0.00000000E+00  0.00000000E+00
  0.00000000E+00  0.00000000E+00  0.00000000E+00
  0.00000000E+00  0.00000000E+00  0.00000000E+00
  0.00000000E+00  0.00000000E+00  0.00000000E+00
  0.00000000E+00  0.00000000E+00  0.00000000E+00
  0.00000000E+00  0.00000000E+00  0.00000000E+00
  0.00000000E+00  0.00000000E+00  0.00000000E+00
  0.00000000E+00  0.00000000E+00  0.00000000E+00
  0.00000000E+00  0.00000000E+00  0.00000000E+00
  0.00000000E+00  0.00000000E+00  0.00000000E+00
  0.00000000E+00  0.00000000E+00  0.00000000E+00
  0.00000000E+00  0.00000000E+00  0.00000000E+00
