C O H                                   
   1.00000000000000     
    40.0000000000000000    0.0000000000000000    0.0000000000000000
     0.0000000000000000   40.0000000000000000    0.0000000000000000
     0.0000000000000000    0.0000000000000000   40.0000000000000000
   C    O    H 
    10     1    12
Selective dynamics
Direct
  0.4856738697761977  0.5214714277332791  0.4999965994025639   T   T   T
  0.4536889690755612  0.5073477063923070  0.4999973105907835   T   T   T
  0.4496527367335658  0.4717480557452375  0.5000020033624850   T   T   T
  0.4778092031003985  0.4512356159960446  0.5000002112762134   T   T   T
  0.5096624177905614  0.4651528051381284  0.5000013588382732   T   T   T
  0.5140178477113032  0.5010055129961368  0.5000003600146068   T   T   T
  0.5465674758586608  0.5162869904135167  0.4999953515694622   T   T   T
  0.5766798963984091  0.4999203283203235  0.5000024188807413   T   T   T
  0.6093244909706225  0.5171379899727003  0.4999999994013318   T   T   T
  0.3938290507469131  0.5164717190538383  0.4999996416893385   T   T   T
  0.4279649574033017  0.5287686286788209  0.4999943613052250   T   T   T
  0.6241664353747713  0.5091341172751145  0.4781606158906733   T   T   T
  0.6241622266321444  0.5091460176597846  0.5218470993527236   T   T   T
  0.6070353728640794  0.5444321297060627  0.4999918082235331   T   T   T
  0.5774364078590100  0.4726097015860289  0.5000103394132599   T   T   T
  0.5468944329621388  0.5436305883339262  0.4999914658330721   T   T   T
  0.5313783667349466  0.4487650696310748  0.5000024040106354   T   T   T
  0.4747222324179696  0.4241776460441013  0.5000041804354396   T   T   T
  0.4248013857830190  0.4606801694905928  0.5000049707984511   T   T   T
  0.3783051909960664  0.5389541939178297  0.4999996837882749   T   T   T
  0.3890454039651033  0.5016612759530039  0.5225896458058755   T   T   T
  0.3890386074349420  0.5016582634839579  0.4774126412538268   T   T   T
  0.4881430214103212  0.5486040464781750  0.4999955288631889   T   T   T
 
  0.00000000E+00  0.00000000E+00  0.00000000E+00
  0.00000000E+00  0.00000000E+00  0.00000000E+00
  0.00000000E+00  0.00000000E+00  0.00000000E+00
  0.00000000E+00  0.00000000E+00  0.00000000E+00
  0.00000000E+00  0.00000000E+00  0.00000000E+00
  0.00000000E+00  0.00000000E+00  0.00000000E+00
  0.00000000E+00  0.00000000E+00  0.00000000E+00
  0.00000000E+00  0.00000000E+00  0.00000000E+00
  0.00000000E+00  0.00000000E+00  0.00000000E+00
  0.00000000E+00  0.00000000E+00  0.00000000E+00
  0.00000000E+00  0.00000000E+00  0.00000000E+00
  0.00000000E+00  0.00000000E+00  0.00000000E+00
  0.00000000E+00  0.00000000E+00  0.00000000E+00
  0.00000000E+00  0.00000000E+00  0.00000000E+00
  0.00000000E+00  0.00000000E+00  0.00000000E+00
  0.00000000E+00  0.00000000E+00  0.00000000E+00
  0.00000000E+00  0.00000000E+00  0.00000000E+00
  0.00000000E+00  0.00000000E+00  0.00000000E+00
  0.00000000E+00  0.00000000E+00  0.00000000E+00
  0.00000000E+00  0.00000000E+00  0.00000000E+00
  0.00000000E+00  0.00000000E+00  0.00000000E+00
  0.00000000E+00  0.00000000E+00  0.00000000E+00
  0.00000000E+00  0.00000000E+00  0.00000000E+00
