C O H                                   
   1.00000000000000     
    40.0000000000000000    0.0000000000000000    0.0000000000000000
     0.0000000000000000   40.0000000000000000    0.0000000000000000
     0.0000000000000000    0.0000000000000000   40.0000000000000000
   C    O    H 
     4     2     8
Selective dynamics
Direct
  0.5190103877373478  0.4705714434747525  0.5059798285358371   T   T   T
  0.4809916122626470  0.4705704434747479  0.4940201714641628   T   T   T
  0.4809896122626520  0.5294285565252477  0.4940201714641628   T   T   T
  0.5190083877373528  0.5294295565252523  0.5059798285358371   T   T   T
  0.4668378890420408  0.4999990000000025  0.5069534515161798   T   T   T
  0.5331621109579590  0.5000009999999975  0.4930465484838200   T   T   T
  0.4683649944254504  0.4491094587438131  0.5053704545088278   T   T   T
  0.4808001574686399  0.4700940979937831  0.4665755571935555   T   T   T
  0.5316350055745498  0.5508905412561867  0.4946295454911722   T   T   T
  0.5191998425313599  0.5299059020062168  0.5334244428064444   T   T   T
  0.4683619944254509  0.5508885412561847  0.5053714545088324   T   T   T
  0.4807971574686403  0.5299059020062168  0.4665765571935601   T   T   T
  0.5316380055745493  0.4491114587438152  0.4946285454911676   T   T   T
  0.5192028425313594  0.4700940979937831  0.5334234428064398   T   T   T
 
  0.00000000E+00  0.00000000E+00  0.00000000E+00
  0.00000000E+00  0.00000000E+00  0.00000000E+00
  0.00000000E+00  0.00000000E+00  0.00000000E+00
  0.00000000E+00  0.00000000E+00  0.00000000E+00
  0.00000000E+00  0.00000000E+00  0.00000000E+00
  0.00000000E+00  0.00000000E+00  0.00000000E+00
  0.00000000E+00  0.00000000E+00  0.00000000E+00
  0.00000000E+00  0.00000000E+00  0.00000000E+00
  0.00000000E+00  0.00000000E+00  0.00000000E+00
  0.00000000E+00  0.00000000E+00  0.00000000E+00
  0.00000000E+00  0.00000000E+00  0.00000000E+00
  0.00000000E+00  0.00000000E+00  0.00000000E+00
  0.00000000E+00  0.00000000E+00  0.00000000E+00
  0.00000000E+00  0.00000000E+00  0.00000000E+00
