C F N O H                               
   1.00000000000000     
    40.0000000000000000    0.0000000000000000    0.0000000000000000
     0.0000000000000000   40.0000000000000000    0.0000000000000000
     0.0000000000000000    0.0000000000000000   40.0000000000000000
   C    F    N    O    H 
     6     1     1     2     4
Selective dynamics
Direct
  0.4702923661312304  0.4695861239607815  0.4999970831016682   T   T   T
  0.5049165423144142  0.4694844596924599  0.4999983231161593   T   T   T
  0.5227613361864586  0.4999996955960668  0.5000000081177518   T   T   T
  0.5049170280533228  0.5305150786887153  0.5000018349927799   T   T   T
  0.4702925015980504  0.5304141718720098  0.5000026431992524   T   T   T
  0.4535680898390775  0.4999998991617147  0.4999997944975547   T   T   T
  0.4191048697401326  0.5000001808063175  0.4999994685548685   T   T   T
  0.5574829030251728  0.4999996835863101  0.4999999408149876   T   T   T
  0.5731864580148601  0.4717768592306077  0.4999988686062622   T   T   T
  0.5731866291902398  0.5282222908854746  0.5000006363881937   T   T   T
  0.4561558222530644  0.5535323417024762  0.5000041502918435   T   T   T
  0.5189903073623213  0.5535742201046864  0.5000045288449755   T   T   T
  0.5189899054147759  0.4464252336138438  0.4999962668765860   T   T   T
  0.4561552408768799  0.4464677610985269  0.4999954525971120   T   T   T
 
  0.00000000E+00  0.00000000E+00  0.00000000E+00
  0.00000000E+00  0.00000000E+00  0.00000000E+00
  0.00000000E+00  0.00000000E+00  0.00000000E+00
  0.00000000E+00  0.00000000E+00  0.00000000E+00
  0.00000000E+00  0.00000000E+00  0.00000000E+00
  0.00000000E+00  0.00000000E+00  0.00000000E+00
  0.00000000E+00  0.00000000E+00  0.00000000E+00
  0.00000000E+00  0.00000000E+00  0.00000000E+00
  0.00000000E+00  0.00000000E+00  0.00000000E+00
  0.00000000E+00  0.00000000E+00  0.00000000E+00
  0.00000000E+00  0.00000000E+00  0.00000000E+00
  0.00000000E+00  0.00000000E+00  0.00000000E+00
  0.00000000E+00  0.00000000E+00  0.00000000E+00
  0.00000000E+00  0.00000000E+00  0.00000000E+00
