C O H                                   
   1.00000000000000     
    40.0000000000000000    0.0000000000000000    0.0000000000000000
     0.0000000000000000   40.0000000000000000    0.0000000000000000
     0.0000000000000000    0.0000000000000000   40.0000000000000000
   C    O    H 
     4     1     4
Selective dynamics
Direct
  0.4857334517361716  0.4723792139345500  0.5000000000000000   T   T   T
  0.5184782787908435  0.4820351768455907  0.5000000000000000   T   T   T
  0.5184772787908389  0.5179658231544068  0.5000000000000000   T   T   T
  0.4857314517361695  0.5276197860654455  0.5000000000000000   T   T   T
  0.4652399469040749  0.4999990000000025  0.5000000000000000   T   T   T
  0.4730997752414853  0.5516025023793435  0.5000000000000000   T   T   T
  0.5400670207794730  0.5344146972484206  0.4999990000000025   T   T   T
  0.5400690207794679  0.4655883027515789  0.5000000000000000   T   T   T
  0.4731027752414848  0.4483954976206546  0.5000000000000000   T   T   T
 
  0.00000000E+00  0.00000000E+00  0.00000000E+00
  0.00000000E+00  0.00000000E+00  0.00000000E+00
  0.00000000E+00  0.00000000E+00  0.00000000E+00
  0.00000000E+00  0.00000000E+00  0.00000000E+00
  0.00000000E+00  0.00000000E+00  0.00000000E+00
  0.00000000E+00  0.00000000E+00  0.00000000E+00
  0.00000000E+00  0.00000000E+00  0.00000000E+00
  0.00000000E+00  0.00000000E+00  0.00000000E+00
  0.00000000E+00  0.00000000E+00  0.00000000E+00
