!PBE0 def2-SV(p) Opt Freq d3 TightSCF SlowConv RIJCOSX defgrid2
 
%pal
nprocs 4
end
 
%scf
MaxIter 1500
end
 
%maxcore 3000
 

 
* xyz 1 2
C     0.7617057   -1.1623944    0.2305400 
C    -0.7616468   -1.1624314   -0.2305859 
H    -1.2834755   -2.0075628    0.2195825 
H    -0.7619452   -1.2071090   -1.3260389 
O    -1.3099416   -0.0000327    0.2621199 
C    -0.7617100    1.1624054   -0.2305633 
C     0.7616429    1.1624424    0.2305614 
H     1.2834714    2.0075734   -0.2196079 
H     0.7619420    1.2071208    1.3260144 
O     1.3099376    0.0000433   -0.2621436 
H    -1.2835846    2.0074999    0.2196209 
H    -0.7620110    1.2071035   -1.3260156 
H     1.2835805   -2.0074892   -0.2196434 
H     0.7620060   -1.2070919    1.3259923
*
