!r2SCAN aug-cc-pVTZ d3 TightSCF SlowConv RIJCOSX defgrid2

%pal
nprocs 15
end

%scf
MaxIter 1500
end

%maxcore 3500

!CPCM
%cpcm smd true
SMDsolvent "WATER"
surfacetype gepol_ses
rsolv 1.40
end

* xyz 0 1
C          -0.05907366598530     -0.02793506437793     -0.04390048443000
C          -0.02890735437417      1.45710089193008      0.08222581496885
C           0.02781409212755      2.06300295185481      1.29625580282132
C           0.05780784816423      1.27059537024470      2.55865678848172
C           0.02728706606325     -0.21148353395784      2.45495612270071
C          -0.02843189949116     -0.83640031526210      1.20261036404921
C          -0.05547047371799     -2.22955810695340      1.11889579291072
C          -0.02722158045044     -2.99492416088675      2.28117734907788
C           0.02796540531077     -2.37140543755571      3.53091392418760
C           0.05520008600593     -0.98250737910286      3.61837358653962
H           0.09847557758253     -0.46770840832251      4.58128936060527
H           0.04990261703070     -2.97596484746596      4.44240334694328
H          -0.04820318575023     -4.08675470796317      2.21598714046560
H          -0.09870498752579     -2.68915740048288      0.12846959179026
C           0.06194462166156      3.55006381235348      1.44143215923311
H          -0.84116618668105      4.01208400301480      1.00272169259353
H           0.12018684562378      3.82673225712869      2.50411119237925
H           0.93021072875079      3.98022200468594      0.91048633813469
C          -0.06163879144342      2.23535286557775     -1.19335579257479
H           0.84200005659416      2.86322691783085     -1.29721049713274
H          -0.11947303398066      1.55280359233205     -2.05354858361608
H          -0.92952293856559      2.91875817267932     -1.21877475276670
O           0.10605373554418      1.82136872263288      3.64196829309901
O          -0.10703458249363     -0.56180561393426     -1.13565794046132
*
