C N H                                   
   1.00000000000000     
    40.0000000000000000    0.0000000000000000    0.0000000000000000
     0.0000000000000000   40.0000000000000000    0.0000000000000000
     0.0000000000000000    0.0000000000000000   40.0000000000000000
   C    N    H 
     6     1    15
Selective dynamics
Direct
  0.4424421499531934  0.4713179388063003  0.4926173024392193   T   T   T
  0.4693830530915974  0.4984174816284411  0.4931481154311446   T   T   T
  0.5317940040903749  0.4937088123740029  0.4916929975546305   T   T   T
  0.5400105386386126  0.5311593342705024  0.4912324667751297   T   T   T
  0.5599118140675776  0.4741881260589553  0.5084396032461819   T   T   T
  0.4563506921023481  0.5295357692716515  0.5111690001640949   T   T   T
  0.5002024694821763  0.4848296476548346  0.5080845500959791   T   T   T
  0.5014063180456479  0.4913663423180024  0.5326384115646049   T   T   T
  0.5417863196599418  0.5408056624029476  0.5167984019914055   T   T   T
  0.5210200588486177  0.5455914944252487  0.4779516245051093   T   T   T
  0.5640083258046281  0.5355162518947681  0.4788488898468805   T   T   T
  0.5547731584500755  0.4473882152926449  0.5078453858059740   T   T   T
  0.5837838562719838  0.4789439727747528  0.4960541812678195   T   T   T
  0.5623988764799929  0.4818184644393517  0.5346168084760616   T   T   T
  0.5296014589834228  0.4851798690915053  0.4656966819248579   T   T   T
  0.4746661139639077  0.5497520645601113  0.5110917454546292   T   T   T
  0.4505782595590751  0.5233900409653847  0.5372255713529500   T   T   T
  0.4333775215276114  0.5386612571103196  0.4994963709528976   T   T   T
  0.4753472825327729  0.5050791828164751  0.4672208750498880   T   T   T
  0.4511363026880239  0.4493636709315340  0.4789206920905280   T   T   T
  0.4365987351032529  0.4635518516183232  0.5181970582709224   T   T   T
  0.4194216906551615  0.4804365492939667  0.4810142657390951   T   T   T
 
  0.00000000E+00  0.00000000E+00  0.00000000E+00
  0.00000000E+00  0.00000000E+00  0.00000000E+00
  0.00000000E+00  0.00000000E+00  0.00000000E+00
  0.00000000E+00  0.00000000E+00  0.00000000E+00
  0.00000000E+00  0.00000000E+00  0.00000000E+00
  0.00000000E+00  0.00000000E+00  0.00000000E+00
  0.00000000E+00  0.00000000E+00  0.00000000E+00
  0.00000000E+00  0.00000000E+00  0.00000000E+00
  0.00000000E+00  0.00000000E+00  0.00000000E+00
  0.00000000E+00  0.00000000E+00  0.00000000E+00
  0.00000000E+00  0.00000000E+00  0.00000000E+00
  0.00000000E+00  0.00000000E+00  0.00000000E+00
  0.00000000E+00  0.00000000E+00  0.00000000E+00
  0.00000000E+00  0.00000000E+00  0.00000000E+00
  0.00000000E+00  0.00000000E+00  0.00000000E+00
  0.00000000E+00  0.00000000E+00  0.00000000E+00
  0.00000000E+00  0.00000000E+00  0.00000000E+00
  0.00000000E+00  0.00000000E+00  0.00000000E+00
  0.00000000E+00  0.00000000E+00  0.00000000E+00
  0.00000000E+00  0.00000000E+00  0.00000000E+00
  0.00000000E+00  0.00000000E+00  0.00000000E+00
  0.00000000E+00  0.00000000E+00  0.00000000E+00
