C N O H                                 
   1.00000000000000     
    40.0000000000000000    0.0000000000000000    0.0000000000000000
     0.0000000000000000   40.0000000000000000    0.0000000000000000
     0.0000000000000000    0.0000000000000000   40.0000000000000000
   C    N    O    H 
     8     1     3     7
Selective dynamics
Direct
  0.5011378416778770  0.4632950006170420  0.4999865126612020   T   T   T
  0.4666686530438494  0.4633332193670514  0.5000068887600179   T   T   T
  0.4489654175152247  0.4940841883080188  0.5000331207932961   T   T   T
  0.4671482482475142  0.5245103797908161  0.5000362695060585   T   T   T
  0.5017245609562738  0.5239907242259578  0.5000165645474695   T   T   T
  0.5199672470103729  0.4934719062414216  0.4999879898719533   T   T   T
  0.5564400619157002  0.4918464746410180  0.4999648377568308   T   T   T
  0.5762396190303521  0.5243599615646822  0.4999415667559423   T   T   T
  0.4137824264311021  0.4942927800011176  0.5000581883717394   T   T   T
  0.5719287153240646  0.4645548705670148  0.4999584950719689   T   T   T
  0.3983625353657289  0.5223684943287306  0.5000769392752369   T   T   T
  0.3980602609236290  0.4663764516229625  0.5000608740520243   T   T   T
  0.5705356682360742  0.5396929112976548  0.5220714141210985   T   T   T
  0.6029637476397041  0.5184011047053331  0.4998780787474150   T   T   T
  0.5704352059965774  0.5397403994593658  0.4778721932628729   T   T   T
  0.5150513917594128  0.5477921183717736  0.5000218062256976   T   T   T
  0.4532503390115731  0.5479115217458540  0.5000611774877342   T   T   T
  0.4523664080436790  0.4401795320468144  0.5000038705977456   T   T   T
  0.5149706518712936  0.4398019610973963  0.4999622121336991   T   T   T
 
  0.00000000E+00  0.00000000E+00  0.00000000E+00
  0.00000000E+00  0.00000000E+00  0.00000000E+00
  0.00000000E+00  0.00000000E+00  0.00000000E+00
  0.00000000E+00  0.00000000E+00  0.00000000E+00
  0.00000000E+00  0.00000000E+00  0.00000000E+00
  0.00000000E+00  0.00000000E+00  0.00000000E+00
  0.00000000E+00  0.00000000E+00  0.00000000E+00
  0.00000000E+00  0.00000000E+00  0.00000000E+00
  0.00000000E+00  0.00000000E+00  0.00000000E+00
  0.00000000E+00  0.00000000E+00  0.00000000E+00
  0.00000000E+00  0.00000000E+00  0.00000000E+00
  0.00000000E+00  0.00000000E+00  0.00000000E+00
  0.00000000E+00  0.00000000E+00  0.00000000E+00
  0.00000000E+00  0.00000000E+00  0.00000000E+00
  0.00000000E+00  0.00000000E+00  0.00000000E+00
  0.00000000E+00  0.00000000E+00  0.00000000E+00
  0.00000000E+00  0.00000000E+00  0.00000000E+00
  0.00000000E+00  0.00000000E+00  0.00000000E+00
  0.00000000E+00  0.00000000E+00  0.00000000E+00
