C N H                                   
   1.00000000000000     
    40.0000000000000000    0.0000000000000000    0.0000000000000000
     0.0000000000000000   40.0000000000000000    0.0000000000000000
     0.0000000000000000    0.0000000000000000   40.0000000000000000
   C    N    H 
     5     1    11
Selective dynamics
Direct
  0.4660799559762470  0.4999887752808272  0.5031748604561780   T   T   T
  0.4848366907288533  0.4685326858555087  0.4928389405335704   T   T   T
  0.5211304066116356  0.4692566519729507  0.5071178404270866   T   T   T
  0.5211099673323183  0.5307588948555824  0.5071062042538592   T   T   T
  0.4848071424400305  0.5314555784948003  0.4928309331114699   T   T   T
  0.5360530225499782  0.5000114651112569  0.4968141057664345   T   T   T
  0.5526589313946809  0.5000166554782537  0.4775606705986021   T   T   T
  0.4730311352517687  0.5541052434194845  0.5024568403324784   T   T   T
  0.4862401489972246  0.5334306466853834  0.4656221139949683   T   T   T
  0.5358882763501259  0.5516274497360616  0.4979642948333765   T   T   T
  0.5196556131399639  0.5310411808146291  0.5344009469263917   T   T   T
  0.5359289014834061  0.4484020151455535  0.4979841375587057   T   T   T
  0.5196809405954533  0.4689843820181644  0.5344124213154602   T   T   T
  0.4730771009875481  0.4458764062906851  0.5024697654080488   T   T   T
  0.4862713079357913  0.4665495383145873  0.4656313519890810   T   T   T
  0.4414052770763600  0.4999746565628763  0.4913534737960023   T   T   T
  0.4621461811485976  0.4999887739634064  0.5302610986982725   T   T   T
 
  0.00000000E+00  0.00000000E+00  0.00000000E+00
  0.00000000E+00  0.00000000E+00  0.00000000E+00
  0.00000000E+00  0.00000000E+00  0.00000000E+00
  0.00000000E+00  0.00000000E+00  0.00000000E+00
  0.00000000E+00  0.00000000E+00  0.00000000E+00
  0.00000000E+00  0.00000000E+00  0.00000000E+00
  0.00000000E+00  0.00000000E+00  0.00000000E+00
  0.00000000E+00  0.00000000E+00  0.00000000E+00
  0.00000000E+00  0.00000000E+00  0.00000000E+00
  0.00000000E+00  0.00000000E+00  0.00000000E+00
  0.00000000E+00  0.00000000E+00  0.00000000E+00
  0.00000000E+00  0.00000000E+00  0.00000000E+00
  0.00000000E+00  0.00000000E+00  0.00000000E+00
  0.00000000E+00  0.00000000E+00  0.00000000E+00
  0.00000000E+00  0.00000000E+00  0.00000000E+00
  0.00000000E+00  0.00000000E+00  0.00000000E+00
  0.00000000E+00  0.00000000E+00  0.00000000E+00
