C N H                                   
   1.00000000000000     
    40.0000000000000000    0.0000000000000000    0.0000000000000000
     0.0000000000000000   40.0000000000000000    0.0000000000000000
     0.0000000000000000    0.0000000000000000   40.0000000000000000
   C    N    H 
     6     1     7
Selective dynamics
Direct
  0.4948517257332952  0.4696898721474722  0.5008450744431173   T   T   T
  0.5297279499996382  0.4698620709266593  0.5008575553019051   T   T   T
  0.5475650125460914  0.4999990000000025  0.5008633536534313   T   T   T
  0.5297279499996382  0.5301369290733361  0.5008575553019051   T   T   T
  0.4948527257332926  0.5303101278525277  0.5008450744431173   T   T   T
  0.4767428705330296  0.5000000000000000  0.5008000455804802   T   T   T
  0.4420829125490190  0.5000009999999975  0.5020721949566633   T   T   T
  0.4304455369600590  0.5212032454726797  0.4944023708480588   T   T   T
  0.4304445369600615  0.4787987545273226  0.4944023708480588   T   T   T
  0.4812452192264888  0.5539881018830012  0.5008354431322635   T   T   T
  0.5431226107945890  0.5539243526614102  0.5007866305441012   T   T   T
  0.5748251189436859  0.4999990000000025  0.5008112572705168   T   T   T
  0.5431216107945915  0.4460746473385780  0.5007866305441012   T   T   T
  0.4812432192264939  0.4460118981169990  0.5008354431322635   T   T   T
 
  0.00000000E+00  0.00000000E+00  0.00000000E+00
  0.00000000E+00  0.00000000E+00  0.00000000E+00
  0.00000000E+00  0.00000000E+00  0.00000000E+00
  0.00000000E+00  0.00000000E+00  0.00000000E+00
  0.00000000E+00  0.00000000E+00  0.00000000E+00
  0.00000000E+00  0.00000000E+00  0.00000000E+00
  0.00000000E+00  0.00000000E+00  0.00000000E+00
  0.00000000E+00  0.00000000E+00  0.00000000E+00
  0.00000000E+00  0.00000000E+00  0.00000000E+00
  0.00000000E+00  0.00000000E+00  0.00000000E+00
  0.00000000E+00  0.00000000E+00  0.00000000E+00
  0.00000000E+00  0.00000000E+00  0.00000000E+00
  0.00000000E+00  0.00000000E+00  0.00000000E+00
  0.00000000E+00  0.00000000E+00  0.00000000E+00
