C N O H                                 
   1.00000000000000     
    40.0000000000000000    0.0000000000000000    0.0000000000000000
     0.0000000000000000   40.0000000000000000    0.0000000000000000
     0.0000000000000000    0.0000000000000000   40.0000000000000000
   C    N    O    H 
     7     1     1     7
Selective dynamics
Direct
  0.5159039506275178  0.4685511005497318  0.5000000000000000   T   T   T
  0.5502843791651131  0.4745438279337932  0.5000000000000000   T   T   T
  0.5623154110193127  0.5073271172777396  0.5000000000000000   T   T   T
  0.5397071888954912  0.5341050839351027  0.5000000000000000   T   T   T
  0.5054119103245398  0.5282559460405025  0.5000000000000000   T   T   T
  0.4930238998716447  0.4952604449871814  0.5000000000000000   T   T   T
  0.4572927271306142  0.4876520634727939  0.5000000000000000   T   T   T
  0.4350767255405827  0.5109544247121818  0.5000000000000000   T   T   T
  0.4025426557266769  0.4974105471770827  0.5000009999999975   T   T   T
  0.3885374672539257  0.5173543035818966  0.5000009999999975   T   T   T
  0.4496475031948464  0.4612514606052471  0.5000000000000000   T   T   T
  0.4878130336985080  0.5490639920657827  0.5000000000000000   T   T   T
  0.5490362809797773  0.5597308707035822  0.5000000000000000   T   T   T
  0.5891681508658877  0.5120749903849102  0.4999990000000025   T   T   T
  0.5676912660668165  0.4535585056440610  0.4999990000000025   T   T   T
  0.5065484496387356  0.4429053209283964  0.5000000000000000   T   T   T
 
  0.00000000E+00  0.00000000E+00  0.00000000E+00
  0.00000000E+00  0.00000000E+00  0.00000000E+00
  0.00000000E+00  0.00000000E+00  0.00000000E+00
  0.00000000E+00  0.00000000E+00  0.00000000E+00
  0.00000000E+00  0.00000000E+00  0.00000000E+00
  0.00000000E+00  0.00000000E+00  0.00000000E+00
  0.00000000E+00  0.00000000E+00  0.00000000E+00
  0.00000000E+00  0.00000000E+00  0.00000000E+00
  0.00000000E+00  0.00000000E+00  0.00000000E+00
  0.00000000E+00  0.00000000E+00  0.00000000E+00
  0.00000000E+00  0.00000000E+00  0.00000000E+00
  0.00000000E+00  0.00000000E+00  0.00000000E+00
  0.00000000E+00  0.00000000E+00  0.00000000E+00
  0.00000000E+00  0.00000000E+00  0.00000000E+00
  0.00000000E+00  0.00000000E+00  0.00000000E+00
  0.00000000E+00  0.00000000E+00  0.00000000E+00
