C O H                                   
   1.00000000000000     
    40.0000000000000000    0.0000000000000000    0.0000000000000000
     0.0000000000000000   40.0000000000000000    0.0000000000000000
     0.0000000000000000    0.0000000000000000   40.0000000000000000
   C    O    H 
     4     2     8
Selective dynamics
Direct
  0.5190210197748438  0.4706203358743478  0.5059912122215130   T   T   T
  0.4809809802251512  0.4706193358743432  0.4940087877784871   T   T   T
  0.4809789802251562  0.5293796641256524  0.4940087877784871   T   T   T
  0.5190190197748489  0.5293806641256570  0.5059912122215130   T   T   T
  0.4669203133923731  0.4999990000000025  0.5070283353892994   T   T   T
  0.5330796866076269  0.5000009999999975  0.4929716646107006   T   T   T
  0.4682671884025010  0.4491515369171187  0.5052721988335912   T   T   T
  0.4807033170115943  0.4700487410190711  0.4665317503826835   T   T   T
  0.5317328115974990  0.5508484630828812  0.4947278011664089   T   T   T
  0.5192966829884058  0.5299512589809290  0.5334682496173165   T   T   T
  0.4682641884025015  0.5508464630828791  0.5052731988335958   T   T   T
  0.4807003170115948  0.5299512589809290  0.4665327503826881   T   T   T
  0.5317358115974985  0.4491535369171208  0.4947268011664043   T   T   T
  0.5192996829884053  0.4700487410190711  0.5334672496173120   T   T   T
 
  0.00000000E+00  0.00000000E+00  0.00000000E+00
  0.00000000E+00  0.00000000E+00  0.00000000E+00
  0.00000000E+00  0.00000000E+00  0.00000000E+00
  0.00000000E+00  0.00000000E+00  0.00000000E+00
  0.00000000E+00  0.00000000E+00  0.00000000E+00
  0.00000000E+00  0.00000000E+00  0.00000000E+00
  0.00000000E+00  0.00000000E+00  0.00000000E+00
  0.00000000E+00  0.00000000E+00  0.00000000E+00
  0.00000000E+00  0.00000000E+00  0.00000000E+00
  0.00000000E+00  0.00000000E+00  0.00000000E+00
  0.00000000E+00  0.00000000E+00  0.00000000E+00
  0.00000000E+00  0.00000000E+00  0.00000000E+00
  0.00000000E+00  0.00000000E+00  0.00000000E+00
  0.00000000E+00  0.00000000E+00  0.00000000E+00
