C N H                                   
   1.00000000000000     
    40.0000000000000000    0.0000000000000000    0.0000000000000000
     0.0000000000000000   40.0000000000000000    0.0000000000000000
     0.0000000000000000    0.0000000000000000   40.0000000000000000
   C    N    H 
     3     2     4
Selective dynamics
Direct
  0.5048978412239097  0.5245189412929510  0.5000009999999975   T   T   T
  0.5252176395220275  0.4965428192532981  0.5000000000000000   T   T   T
  0.5028600457397187  0.4693643976994866  0.5000009999999975   T   T   T
  0.4710224757952544  0.4795649548148351  0.4999990000000025   T   T   T
  0.4730651929729460  0.5132312961866272  0.4999990000000025   T   T   T
  0.4519258646779299  0.5269723437229876  0.4999990000000025   T   T   T
  0.5083740641117049  0.4429256053273009  0.5000009999999975   T   T   T
  0.5521583226546568  0.4959823273373830  0.5000000000000000   T   T   T
  0.5104775533018405  0.5508963143651402  0.5000009999999975   T   T   T
 
  0.00000000E+00  0.00000000E+00  0.00000000E+00
  0.00000000E+00  0.00000000E+00  0.00000000E+00
  0.00000000E+00  0.00000000E+00  0.00000000E+00
  0.00000000E+00  0.00000000E+00  0.00000000E+00
  0.00000000E+00  0.00000000E+00  0.00000000E+00
  0.00000000E+00  0.00000000E+00  0.00000000E+00
  0.00000000E+00  0.00000000E+00  0.00000000E+00
  0.00000000E+00  0.00000000E+00  0.00000000E+00
  0.00000000E+00  0.00000000E+00  0.00000000E+00
