C H                                     
   1.00000000000000     
    40.0000000000000000    0.0000000000000000    0.0000000000000000
     0.0000000000000000   40.0000000000000000    0.0000000000000000
     0.0000000000000000    0.0000000000000000   40.0000000000000000
   C    H 
    12    14
Selective dynamics
Direct
  0.5123934650294441  0.4678641659249691  0.4999986117438465   T   T   T
  0.5352012886358712  0.4945831746106973  0.5000002320930008   T   T   T
  0.5218211466665125  0.5269944717926290  0.4999975416853968   T   T   T
  0.4876065240188437  0.5321347693881318  0.4999938501616499   T   T   T
  0.4647984689781325  0.5054156851859127  0.4999959205582138   T   T   T
  0.4781794022580298  0.4730049445806885  0.4999983658250728   T   T   T
  0.4290385078240894  0.5126895678008917  0.4999915166003977   T   T   T
  0.4037470229060591  0.4907341266039131  0.5000111050473027   T   T   T
  0.3676776624144634  0.5000598462491747  0.5000062880973954   T   T   T
  0.5709612253222809  0.4873101811136380  0.5000006054828191   T   T   T
  0.5962522360598537  0.5092669121495393  0.5000005106090034   T   T   T
  0.6323211668304985  0.4999415536807948  0.5000032648071784   T   T   T
  0.4616861680951436  0.4514981044507988  0.4999915699590106   T   T   T
  0.3548417326621358  0.4897291673351183  0.4781408797275601   T   T   T
  0.3642176683356493  0.5271227881619072  0.4999823598306339   T   T   T
  0.3548513541120170  0.4897698335628163  0.5218957757362723   T   T   T
  0.4090839228316542  0.4640625706713230  0.5000317244561946   T   T   T
  0.4227866427893927  0.5392114802424346  0.4999693313099536   T   T   T
  0.4779688588956071  0.5575085404580182  0.4999895157306682   T   T   T
  0.5383147714459458  0.5485010768559809  0.4999922947452568   T   T   T
  0.6451522237091107  0.5102541848055059  0.5218793789538678   T   T   T
  0.6451544900185524  0.5102481639793137  0.4781244453091085   T   T   T
  0.6357813073980507  0.4728788083319163  0.5000070246142659   T   T   T
  0.5909152108440878  0.5359380800543114  0.4999985274291481   T   T   T
  0.5772147085258255  0.4607883692889013  0.5000016424930367   T   T   T
  0.5220328233927350  0.4424904327206997  0.4999967169936981   T   T   T
 
  0.00000000E+00  0.00000000E+00  0.00000000E+00
  0.00000000E+00  0.00000000E+00  0.00000000E+00
  0.00000000E+00  0.00000000E+00  0.00000000E+00
  0.00000000E+00  0.00000000E+00  0.00000000E+00
  0.00000000E+00  0.00000000E+00  0.00000000E+00
  0.00000000E+00  0.00000000E+00  0.00000000E+00
  0.00000000E+00  0.00000000E+00  0.00000000E+00
  0.00000000E+00  0.00000000E+00  0.00000000E+00
  0.00000000E+00  0.00000000E+00  0.00000000E+00
  0.00000000E+00  0.00000000E+00  0.00000000E+00
  0.00000000E+00  0.00000000E+00  0.00000000E+00
  0.00000000E+00  0.00000000E+00  0.00000000E+00
  0.00000000E+00  0.00000000E+00  0.00000000E+00
  0.00000000E+00  0.00000000E+00  0.00000000E+00
  0.00000000E+00  0.00000000E+00  0.00000000E+00
  0.00000000E+00  0.00000000E+00  0.00000000E+00
  0.00000000E+00  0.00000000E+00  0.00000000E+00
  0.00000000E+00  0.00000000E+00  0.00000000E+00
  0.00000000E+00  0.00000000E+00  0.00000000E+00
  0.00000000E+00  0.00000000E+00  0.00000000E+00
  0.00000000E+00  0.00000000E+00  0.00000000E+00
  0.00000000E+00  0.00000000E+00  0.00000000E+00
  0.00000000E+00  0.00000000E+00  0.00000000E+00
  0.00000000E+00  0.00000000E+00  0.00000000E+00
  0.00000000E+00  0.00000000E+00  0.00000000E+00
  0.00000000E+00  0.00000000E+00  0.00000000E+00
