C F O H                                 
   1.00000000000000     
    40.0000000000000000    0.0000000000000000    0.0000000000000000
     0.0000000000000000   40.0000000000000000    0.0000000000000000
     0.0000000000000000    0.0000000000000000   40.0000000000000000
   C    F    O    H 
     8     1     1     7
Selective dynamics
Direct
  0.5100429603547987  0.5233503058306779  0.5000058626093573   T   T   T
  0.5449209689377579  0.5241055571533848  0.5000102368093869   T   T   T
  0.5618928532529959  0.4937511316831463  0.5000064618349995   T   T   T
  0.5457491177350141  0.4628806880044960  0.5000009468695403   T   T   T
  0.5109681049450576  0.4626890963644555  0.4999983020461334   T   T   T
  0.4926702840716013  0.4927504467393073  0.5000002390904682   T   T   T
  0.4553738821051639  0.4911169161852233  0.4999940449930231   T   T   T
  0.4357393318944625  0.5233392253996577  0.4999923682127461   T   T   T
  0.5961110605839313  0.4941862842345025  0.5000066769202537   T   T   T
  0.4408350098856754  0.4637602033009183  0.4999955896505429   T   T   T
  0.4418926300604127  0.5385033399334861  0.5221051560663686   T   T   T
  0.4419008110420697  0.5385085291411531  0.4778864908052008   T   T   T
  0.4089705833779944  0.5176175450107504  0.4999881471267189   T   T   T
  0.4973855948489431  0.4390598540235773  0.4999936184811553   T   T   T
  0.5602652481883008  0.4398321859763403  0.4999990717429669   T   T   T
  0.5587686081446267  0.5475571579367881  0.5000131376502183   T   T   T
  0.4965129505711798  0.5469915330821568  0.5000046490909312   T   T   T
 
  0.00000000E+00  0.00000000E+00  0.00000000E+00
  0.00000000E+00  0.00000000E+00  0.00000000E+00
  0.00000000E+00  0.00000000E+00  0.00000000E+00
  0.00000000E+00  0.00000000E+00  0.00000000E+00
  0.00000000E+00  0.00000000E+00  0.00000000E+00
  0.00000000E+00  0.00000000E+00  0.00000000E+00
  0.00000000E+00  0.00000000E+00  0.00000000E+00
  0.00000000E+00  0.00000000E+00  0.00000000E+00
  0.00000000E+00  0.00000000E+00  0.00000000E+00
  0.00000000E+00  0.00000000E+00  0.00000000E+00
  0.00000000E+00  0.00000000E+00  0.00000000E+00
  0.00000000E+00  0.00000000E+00  0.00000000E+00
  0.00000000E+00  0.00000000E+00  0.00000000E+00
  0.00000000E+00  0.00000000E+00  0.00000000E+00
  0.00000000E+00  0.00000000E+00  0.00000000E+00
  0.00000000E+00  0.00000000E+00  0.00000000E+00
  0.00000000E+00  0.00000000E+00  0.00000000E+00
