C H                                     
   1.00000000000000     
    40.0000000000000000    0.0000000000000000    0.0000000000000000
     0.0000000000000000   40.0000000000000000    0.0000000000000000
     0.0000000000000000    0.0000000000000000   40.0000000000000000
   C    H 
    10    12
Selective dynamics
Direct
  0.5268691256175847  0.4685765839154830  0.5000028212742773   T   T   T
  0.5361070247848084  0.5025175102022729  0.5000017742133139   T   T   T
  0.5102972288009582  0.5264241576857928  0.5000010579487008   T   T   T
  0.4764171681297440  0.5176780266164019  0.5000006689090017   T   T   T
  0.4675743079228746  0.4834739710032718  0.5000016724855288   T   T   T
  0.4932596180286442  0.4595245368668203  0.5000030617060001   T   T   T
  0.4315145141554352  0.4728606949576581  0.5000004398154713   T   T   T
  0.4499154936020918  0.5443723210214265  0.4999988939206199   T   T   T
  0.5709436494921011  0.5140615986169325  0.5000033463641003   T   T   T
  0.5986970550507135  0.4950928216280334  0.4999910579567927   T   T   T
  0.4865675279257181  0.4330546204103738  0.5000054256901355   T   T   T
  0.4291828527603340  0.4455488511224933  0.5000023473666104   T   T   T
  0.4181779382842567  0.4825748597726645  0.4779790087209407   T   T   T
  0.4181752369323662  0.4825783828055107  0.5220186042317203   T   T   T
  0.4335600721289922  0.5422832906507610  0.5220226002752728   T   T   T
  0.4335581041358335  0.5422782185704528  0.4779774453009547   T   T   T
  0.4610315011359904  0.5694266162207269  0.4999957653387389   T   T   T
  0.5170057435006888  0.5529213159033023  0.5000015678472356   T   T   T
  0.5978592932125082  0.4678376210974991  0.4999781228934678   T   T   T
  0.6234048089116061  0.5065473585400874  0.4999923496690118   T   T   T
  0.5739284936288338  0.5412711713756161  0.5000143774768263   T   T   T
  0.5459522418579258  0.4490964710164302  0.5000075905952853   T   T   T
 
  0.00000000E+00  0.00000000E+00  0.00000000E+00
  0.00000000E+00  0.00000000E+00  0.00000000E+00
  0.00000000E+00  0.00000000E+00  0.00000000E+00
  0.00000000E+00  0.00000000E+00  0.00000000E+00
  0.00000000E+00  0.00000000E+00  0.00000000E+00
  0.00000000E+00  0.00000000E+00  0.00000000E+00
  0.00000000E+00  0.00000000E+00  0.00000000E+00
  0.00000000E+00  0.00000000E+00  0.00000000E+00
  0.00000000E+00  0.00000000E+00  0.00000000E+00
  0.00000000E+00  0.00000000E+00  0.00000000E+00
  0.00000000E+00  0.00000000E+00  0.00000000E+00
  0.00000000E+00  0.00000000E+00  0.00000000E+00
  0.00000000E+00  0.00000000E+00  0.00000000E+00
  0.00000000E+00  0.00000000E+00  0.00000000E+00
  0.00000000E+00  0.00000000E+00  0.00000000E+00
  0.00000000E+00  0.00000000E+00  0.00000000E+00
  0.00000000E+00  0.00000000E+00  0.00000000E+00
  0.00000000E+00  0.00000000E+00  0.00000000E+00
  0.00000000E+00  0.00000000E+00  0.00000000E+00
  0.00000000E+00  0.00000000E+00  0.00000000E+00
  0.00000000E+00  0.00000000E+00  0.00000000E+00
  0.00000000E+00  0.00000000E+00  0.00000000E+00
