C N O H                                 
   1.00000000000000     
    40.0000000000000000    0.0000000000000000    0.0000000000000000
     0.0000000000000000   40.0000000000000000    0.0000000000000000
     0.0000000000000000    0.0000000000000000   40.0000000000000000
   C    N    O    H 
    10     1     1    13
Selective dynamics
Direct
  0.4661362804371834  0.5306670469575749  0.5029383129679772   T   T   T
  0.4328423633620062  0.5332872694611623  0.4939034920215661   T   T   T
  0.4129607419121157  0.5045609702706599  0.4904075033837287   T   T   T
  0.4268046736395661  0.4728733693739500  0.4963439869045985   T   T   T
  0.4601180670160616  0.4696561609574132  0.5050475958345970   T   T   T
  0.4806757918094391  0.4985913956996200  0.5081396321545171   T   T   T
  0.5332742709912068  0.4654862984048975  0.5080383283456626   T   T   T
  0.5564365794325568  0.4743972209171972  0.4780759333148907   T   T   T
  0.5591998036857362  0.5305902930176956  0.4948085796995016   T   T   T
  0.5356461454320538  0.5231536690542526  0.5247199515151451   T   T   T
  0.5139819970808048  0.4952640802107737  0.5161131526270992   T   T   T
  0.5776543387412403  0.5014530028914450  0.4865465370918756   T   T   T
  0.5486602320601790  0.4584824492837214  0.5296551081410286   T   T   T
  0.5171942292251970  0.4446089418943444  0.5008944199212166   T   T   T
  0.5407698202070534  0.4804367204662867  0.4561415735554846   T   T   T
  0.5724472532824620  0.4529032431250286  0.4723749719940145   T   T   T
  0.5772684657113771  0.5499078067563872  0.5019446834477677   T   T   T
  0.5442526525630953  0.5393172968865656  0.4732775820091533   T   T   T
  0.5213044406524574  0.5452697471471595  0.5318293050326801   T   T   T
  0.5510298273564516  0.5154375500547275  0.5461383546526832   T   T   T
  0.4700082722756491  0.4449950806173106  0.5108072721206369   T   T   T
  0.4112577626224407  0.4505874548720996  0.4944956809433592   T   T   T
  0.3867651576051898  0.5068969131537600  0.4833452264174696   T   T   T
  0.4221915016688342  0.5579084695920571  0.4892163792520492   T   T   T
  0.4811163312296358  0.5532685489339144  0.5047974366513088   T   T   T
 
  0.00000000E+00  0.00000000E+00  0.00000000E+00
  0.00000000E+00  0.00000000E+00  0.00000000E+00
  0.00000000E+00  0.00000000E+00  0.00000000E+00
  0.00000000E+00  0.00000000E+00  0.00000000E+00
  0.00000000E+00  0.00000000E+00  0.00000000E+00
  0.00000000E+00  0.00000000E+00  0.00000000E+00
  0.00000000E+00  0.00000000E+00  0.00000000E+00
  0.00000000E+00  0.00000000E+00  0.00000000E+00
  0.00000000E+00  0.00000000E+00  0.00000000E+00
  0.00000000E+00  0.00000000E+00  0.00000000E+00
  0.00000000E+00  0.00000000E+00  0.00000000E+00
  0.00000000E+00  0.00000000E+00  0.00000000E+00
  0.00000000E+00  0.00000000E+00  0.00000000E+00
  0.00000000E+00  0.00000000E+00  0.00000000E+00
  0.00000000E+00  0.00000000E+00  0.00000000E+00
  0.00000000E+00  0.00000000E+00  0.00000000E+00
  0.00000000E+00  0.00000000E+00  0.00000000E+00
  0.00000000E+00  0.00000000E+00  0.00000000E+00
  0.00000000E+00  0.00000000E+00  0.00000000E+00
  0.00000000E+00  0.00000000E+00  0.00000000E+00
  0.00000000E+00  0.00000000E+00  0.00000000E+00
  0.00000000E+00  0.00000000E+00  0.00000000E+00
  0.00000000E+00  0.00000000E+00  0.00000000E+00
  0.00000000E+00  0.00000000E+00  0.00000000E+00
  0.00000000E+00  0.00000000E+00  0.00000000E+00
