C O H                                   
   1.00000000000000     
    40.0000000000000000    0.0000000000000000    0.0000000000000000
     0.0000000000000000   40.0000000000000000    0.0000000000000000
     0.0000000000000000    0.0000000000000000   40.0000000000000000
   C    O    H 
    12     1    10
Selective dynamics
Direct
  0.5341208080112616  0.4868814504603701  0.5196873034976318   T   T   T
  0.5654930112951054  0.4718642979139996  0.5209071927144231   T   T   T
  0.5924972883333888  0.4856867313885578  0.5037959555184263   T   T   T
  0.5880016031479006  0.5148874823210631  0.4853755730647006   T   T   T
  0.5567458836614242  0.5301052405245997  0.4837599226703512   T   T   T
  0.5300021462290385  0.5158865043352248  0.5008684240393539   T   T   T
  0.4699975889813633  0.5158839784681502  0.4991334467321944   T   T   T
  0.4432514871539405  0.5301031665155606  0.5162388203903351   T   T   T
  0.4119964391051251  0.5148861224878073  0.5146205452063700   T   T   T
  0.4075020197744713  0.4856833639744911  0.4962017813338671   T   T   T
  0.4345098355011368  0.4718604247289913  0.4790938490013750   T   T   T
  0.4658802807901218  0.4868779243937350  0.4803170406740253   T   T   T
  0.4999994448246667  0.5331884506707865  0.5000016733125818   T   T   T
  0.4868258673679976  0.4762689992883589  0.4668078120341154   T   T   T
  0.4312205709350759  0.4492610330094454  0.4644616786170797   T   T   T
  0.3831600329655179  0.4738205646425060  0.4951205752203696   T   T   T
  0.3911223229284860  0.5259235937993437  0.5279621757248634   T   T   T
  0.4471120910531355  0.5528219844867317  0.5304881525605034   T   T   T
  0.5528832700502377  0.5528211691196654  0.4695075411063293   T   T   T
  0.6088735712988534  0.5259234530497451  0.4720311733869196   T   T   T
  0.6168405427581997  0.4738244303628862  0.5048761294350892   T   T   T
  0.5687837949251308  0.4492668306938473  0.5355416941437005   T   T   T
  0.5131780989084261  0.4762738033640952  0.5332005396153899   T   T   T
 
  0.00000000E+00  0.00000000E+00  0.00000000E+00
  0.00000000E+00  0.00000000E+00  0.00000000E+00
  0.00000000E+00  0.00000000E+00  0.00000000E+00
  0.00000000E+00  0.00000000E+00  0.00000000E+00
  0.00000000E+00  0.00000000E+00  0.00000000E+00
  0.00000000E+00  0.00000000E+00  0.00000000E+00
  0.00000000E+00  0.00000000E+00  0.00000000E+00
  0.00000000E+00  0.00000000E+00  0.00000000E+00
  0.00000000E+00  0.00000000E+00  0.00000000E+00
  0.00000000E+00  0.00000000E+00  0.00000000E+00
  0.00000000E+00  0.00000000E+00  0.00000000E+00
  0.00000000E+00  0.00000000E+00  0.00000000E+00
  0.00000000E+00  0.00000000E+00  0.00000000E+00
  0.00000000E+00  0.00000000E+00  0.00000000E+00
  0.00000000E+00  0.00000000E+00  0.00000000E+00
  0.00000000E+00  0.00000000E+00  0.00000000E+00
  0.00000000E+00  0.00000000E+00  0.00000000E+00
  0.00000000E+00  0.00000000E+00  0.00000000E+00
  0.00000000E+00  0.00000000E+00  0.00000000E+00
  0.00000000E+00  0.00000000E+00  0.00000000E+00
  0.00000000E+00  0.00000000E+00  0.00000000E+00
  0.00000000E+00  0.00000000E+00  0.00000000E+00
  0.00000000E+00  0.00000000E+00  0.00000000E+00
