C O S H                                 
   1.00000000000000     
    40.0000000000000000    0.0000000000000000    0.0000000000000000
     0.0000000000000000   40.0000000000000000    0.0000000000000000
     0.0000000000000000    0.0000000000000000   40.0000000000000000
   C    O    S    H 
     7     1     1     8
Selective dynamics
Direct
  0.5514833575540322  0.5015795152130067  0.4969287251295447   T   T   T
  0.5364144198436787  0.5338289054214236  0.4983779885814758   T   T   T
  0.5023185716051021  0.5365418666811081  0.5008680831468677   T   T   T
  0.4820996859343623  0.5072062591141704  0.5018213524022618   T   T   T
  0.4969586881645978  0.4749626111161757  0.5009693338529978   T   T   T
  0.5311711813814693  0.4723235961415863  0.4986098822326047   T   T   T
  0.4261972760780368  0.4846304461361297  0.5036686997447223   T   T   T
  0.4493258179929104  0.5126650535292046  0.5034349585969581   T   T   T
  0.5937316097509122  0.4957377099085000  0.4930046177281524   T   T   T
  0.5428280180376283  0.4477086500465438  0.4978872464168561   T   T   T
  0.4817003254398455  0.4524965716046197  0.5021696746104544   T   T   T
  0.4013669061192675  0.4959652038083527  0.5045824119492638   T   T   T
  0.4291953237423116  0.4698690917049473  0.4807471131425336   T   T   T
  0.4304957468894623  0.4691175869919051  0.5258743997471297   T   T   T
  0.4901120998077988  0.5608570028617037  0.5020159685226540   T   T   T
  0.5519207177764504  0.5561862356573866  0.4975271246455760   T   T   T
  0.6026782538821182  0.5283246940632483  0.4915104195499523   T   T   T
 
  0.00000000E+00  0.00000000E+00  0.00000000E+00
  0.00000000E+00  0.00000000E+00  0.00000000E+00
  0.00000000E+00  0.00000000E+00  0.00000000E+00
  0.00000000E+00  0.00000000E+00  0.00000000E+00
  0.00000000E+00  0.00000000E+00  0.00000000E+00
  0.00000000E+00  0.00000000E+00  0.00000000E+00
  0.00000000E+00  0.00000000E+00  0.00000000E+00
  0.00000000E+00  0.00000000E+00  0.00000000E+00
  0.00000000E+00  0.00000000E+00  0.00000000E+00
  0.00000000E+00  0.00000000E+00  0.00000000E+00
  0.00000000E+00  0.00000000E+00  0.00000000E+00
  0.00000000E+00  0.00000000E+00  0.00000000E+00
  0.00000000E+00  0.00000000E+00  0.00000000E+00
  0.00000000E+00  0.00000000E+00  0.00000000E+00
  0.00000000E+00  0.00000000E+00  0.00000000E+00
  0.00000000E+00  0.00000000E+00  0.00000000E+00
  0.00000000E+00  0.00000000E+00  0.00000000E+00
