C N O H                                 
   1.00000000000000     
    40.0000000000000000    0.0000000000000000    0.0000000000000000
     0.0000000000000000   40.0000000000000000    0.0000000000000000
     0.0000000000000000    0.0000000000000000   40.0000000000000000
   C    N    O    H 
    10     1     1    17
Selective dynamics
Direct
  0.4702416466847703  0.4681521143749746  0.5041284004020850   T   T   T
  0.4915201108982621  0.4992239271447631  0.5089351783713598   T   T   T
  0.4784718543595462  0.5301419697930104  0.5038427041863103   T   T   T
  0.4425091495954903  0.5367276485245371  0.4946175953235252   T   T   T
  0.4242949039183121  0.5052978870248692  0.4825401411718377   T   T   T
  0.4327269429956262  0.4757551423325751  0.5052738661934729   T   T   T
  0.5463695546463874  0.5211995309147285  0.5280678354264754   T   T   T
  0.5659331201047841  0.5316873301338050  0.4969760079827261   T   T   T
  0.5629723719866883  0.4761544799877011  0.4763570571709962   T   T   T
  0.5433404982286163  0.4651537531185749  0.5072490124042802   T   T   T
  0.5239669889496965  0.4930987066073725  0.5212310576436154   T   T   T
  0.5847078386405757  0.5038340793849948  0.4838929773576784   T   T   T
  0.4254040647246646  0.4818010401231451  0.5311848311948550   T   T   T
  0.4185481952881615  0.4533246839363012  0.4980085991130802   T   T   T
  0.4322853196472096  0.4993327789937005  0.4568012011767512   T   T   T
  0.3971332328973889  0.5096508838947581  0.4816999935562847   T   T   T
  0.4289635110225677  0.5473438134248686  0.5163285089647663   T   T   T
  0.4414107135500146  0.5563027696713284  0.4752197523024072   T   T   T
  0.4941198174085262  0.5522593739937672  0.5070452298479853   T   T   T
  0.5322054022945111  0.5423122915186019  0.5384053431991596   T   T   T
  0.5842739273131727  0.5512201451346438  0.5029895962231529   T   T   T
  0.5487782252644989  0.5411853625107510  0.4774808628634942   T   T   T
  0.5454663711654072  0.4833678376281738  0.4561392120590954   T   T   T
  0.5609942863906154  0.4564433825920785  0.5265465398842095   T   T   T
  0.5269289801351486  0.4441574911788544  0.5008531034752757   T   T   T
  0.5791541825164304  0.4558993092710255  0.4672817895049829   T   T   T
  0.5643074755623215  0.5129779008265850  0.5473338730609407   T   T   T
  0.4763032103517182  0.4562264513228281  0.4799713949967949   T   T   T
  0.4766701034588889  0.4497689146367010  0.5236013349424228   T   T   T
 
  0.00000000E+00  0.00000000E+00  0.00000000E+00
  0.00000000E+00  0.00000000E+00  0.00000000E+00
  0.00000000E+00  0.00000000E+00  0.00000000E+00
  0.00000000E+00  0.00000000E+00  0.00000000E+00
  0.00000000E+00  0.00000000E+00  0.00000000E+00
  0.00000000E+00  0.00000000E+00  0.00000000E+00
  0.00000000E+00  0.00000000E+00  0.00000000E+00
  0.00000000E+00  0.00000000E+00  0.00000000E+00
  0.00000000E+00  0.00000000E+00  0.00000000E+00
  0.00000000E+00  0.00000000E+00  0.00000000E+00
  0.00000000E+00  0.00000000E+00  0.00000000E+00
  0.00000000E+00  0.00000000E+00  0.00000000E+00
  0.00000000E+00  0.00000000E+00  0.00000000E+00
  0.00000000E+00  0.00000000E+00  0.00000000E+00
  0.00000000E+00  0.00000000E+00  0.00000000E+00
  0.00000000E+00  0.00000000E+00  0.00000000E+00
  0.00000000E+00  0.00000000E+00  0.00000000E+00
  0.00000000E+00  0.00000000E+00  0.00000000E+00
  0.00000000E+00  0.00000000E+00  0.00000000E+00
  0.00000000E+00  0.00000000E+00  0.00000000E+00
  0.00000000E+00  0.00000000E+00  0.00000000E+00
  0.00000000E+00  0.00000000E+00  0.00000000E+00
  0.00000000E+00  0.00000000E+00  0.00000000E+00
  0.00000000E+00  0.00000000E+00  0.00000000E+00
  0.00000000E+00  0.00000000E+00  0.00000000E+00
  0.00000000E+00  0.00000000E+00  0.00000000E+00
  0.00000000E+00  0.00000000E+00  0.00000000E+00
  0.00000000E+00  0.00000000E+00  0.00000000E+00
  0.00000000E+00  0.00000000E+00  0.00000000E+00
