C H                                     
   1.00000000000000     
    40.0000000000000000    0.0000000000000000    0.0000000000000000
     0.0000000000000000   40.0000000000000000    0.0000000000000000
     0.0000000000000000    0.0000000000000000   40.0000000000000000
   C    H 
    14    12
Selective dynamics
Direct
  0.5606216939077319  0.4776706466960449  0.5150579305628642   T   T   T
  0.5315484074226582  0.4903488327018567  0.4991271848526641   T   T   T
  0.5335715994121047  0.5211436075645256  0.4815038717710672   T   T   T
  0.5635303840574439  0.5385835908221929  0.4800268943005491   T   T   T
  0.5918851432438856  0.5259802557705735  0.4963753973460669   T   T   T
  0.5902504637677392  0.4956222450267797  0.5140421360859189   T   T   T
  0.5000000000000000  0.4720924645900390  0.5000000000000000   T   T   T
  0.5000000000000000  0.4374056318196883  0.4999990000000025   T   T   T
  0.4684515925773420  0.4903488327018567  0.5008728151473362   T   T   T
  0.4393783060922682  0.4776716466960494  0.4849420694371356   T   T   T
  0.4097495362322605  0.4956232450267771  0.4859578639140813   T   T   T
  0.4081148567561142  0.5259812557705710  0.5036246026539333   T   T   T
  0.4364696159425558  0.5385835908221929  0.5199741056994616   T   T   T
  0.4664284005878953  0.5211436075645256  0.5184971282289302   T   T   T
  0.6122897577280498  0.4862869248795862  0.5270728561200781   T   T   T
  0.6154046482891838  0.5397047943611075  0.4952024228225532   T   T   T
  0.5650542182561737  0.5618396120288908  0.4659270124138400   T   T   T
  0.5117050036321317  0.5303067275543940  0.4680684750590101   T   T   T
  0.4767288192592901  0.4233039794329343  0.4993454397625189   T   T   T
  0.5232701807407125  0.4233029794329297  0.5006525602374789   T   T   T
  0.4882949963678687  0.5303057275543965  0.5319325249409873   T   T   T
  0.4349457817438263  0.5618386120288933  0.5340749875861623   T   T   T
  0.3845953517108164  0.5397057943611121  0.5047985771774441   T   T   T
  0.3877102422719497  0.4862879248795837  0.4729261438799244   T   T   T
  0.4407079446480375  0.4544582349562472  0.4707335376590808   T   T   T
  0.5592920553519622  0.4544572349562497  0.5292644623409173   T   T   T
 
  0.00000000E+00  0.00000000E+00  0.00000000E+00
  0.00000000E+00  0.00000000E+00  0.00000000E+00
  0.00000000E+00  0.00000000E+00  0.00000000E+00
  0.00000000E+00  0.00000000E+00  0.00000000E+00
  0.00000000E+00  0.00000000E+00  0.00000000E+00
  0.00000000E+00  0.00000000E+00  0.00000000E+00
  0.00000000E+00  0.00000000E+00  0.00000000E+00
  0.00000000E+00  0.00000000E+00  0.00000000E+00
  0.00000000E+00  0.00000000E+00  0.00000000E+00
  0.00000000E+00  0.00000000E+00  0.00000000E+00
  0.00000000E+00  0.00000000E+00  0.00000000E+00
  0.00000000E+00  0.00000000E+00  0.00000000E+00
  0.00000000E+00  0.00000000E+00  0.00000000E+00
  0.00000000E+00  0.00000000E+00  0.00000000E+00
  0.00000000E+00  0.00000000E+00  0.00000000E+00
  0.00000000E+00  0.00000000E+00  0.00000000E+00
  0.00000000E+00  0.00000000E+00  0.00000000E+00
  0.00000000E+00  0.00000000E+00  0.00000000E+00
  0.00000000E+00  0.00000000E+00  0.00000000E+00
  0.00000000E+00  0.00000000E+00  0.00000000E+00
  0.00000000E+00  0.00000000E+00  0.00000000E+00
  0.00000000E+00  0.00000000E+00  0.00000000E+00
  0.00000000E+00  0.00000000E+00  0.00000000E+00
  0.00000000E+00  0.00000000E+00  0.00000000E+00
  0.00000000E+00  0.00000000E+00  0.00000000E+00
  0.00000000E+00  0.00000000E+00  0.00000000E+00
