C O H                                   
   1.00000000000000     
    40.0000000000000000    0.0000000000000000    0.0000000000000000
     0.0000000000000000   40.0000000000000000    0.0000000000000000
     0.0000000000000000    0.0000000000000000   40.0000000000000000
   C    O    H 
    14     1    12
Selective dynamics
Direct
  0.4568009242202396  0.5348267214599700  0.4944932915605518   T   T   T
  0.4374625903782910  0.5051906386341453  0.4993675898159211   T   T   T
  0.4560573096423004  0.4750485818954798  0.5038066167183065   T   T   T
  0.4904874867321645  0.4746612373583478  0.5032609861379571   T   T   T
  0.5096572073892369  0.5042618534934080  0.4988671236770977   T   T   T
  0.4911672019963666  0.5343145280727749  0.4945854003395594   T   T   T
  0.5460119054587312  0.5039116206943571  0.4987999885872082   T   T   T
  0.5643802389530026  0.4748863476616378  0.4902993041517469   T   T   T
  0.5990696830267057  0.4747280217347960  0.4901501607757570   T   T   T
  0.6171437544161098  0.5034094677177745  0.4985791965761793   T   T   T
  0.5995553251842419  0.5323548046758598  0.5071424630567537   T   T   T
  0.5648675770182032  0.5326503588948761  0.5072283277958846   T   T   T
  0.4016758925413065  0.5064782995092487  0.4997559658251810   T   T   T
  0.3821780872057864  0.4744863302843575  0.5059579268987260   T   T   T
  0.3854392509271356  0.5335806117268604  0.4954012711058126   T   T   T
  0.5045118919455440  0.5575689702604942  0.4902887439174123   T   T   T
  0.5519720549095521  0.5552976259641411  0.5147198975616918   T   T   T
  0.6130496714711702  0.5548428432694923  0.5141916033769268   T   T   T
  0.6442495275044074  0.5032266131719768  0.4984976256907814   T   T   T
  0.6122289939483722  0.4520705795473838  0.4830573430835462   T   T   T
  0.5511296375028640  0.4524209993122947  0.4829127834325781   T   T   T
  0.5032636696344076  0.4510644724401806  0.5073357083610170   T   T   T
  0.4428890700399526  0.4516979622207539  0.5080079924296481   T   T   T
  0.3555261773617774  0.4800862875477429  0.5050834630551906   T   T   T
  0.3876653273130257  0.4551693721315687  0.4873234197527553   T   T   T
  0.3879769617699984  0.4635958192769887  0.5304345710950880   T   T   T
  0.4435825815091349  0.5581700310430859  0.4904522352207190   T   T   T
 
  0.00000000E+00  0.00000000E+00  0.00000000E+00
  0.00000000E+00  0.00000000E+00  0.00000000E+00
  0.00000000E+00  0.00000000E+00  0.00000000E+00
  0.00000000E+00  0.00000000E+00  0.00000000E+00
  0.00000000E+00  0.00000000E+00  0.00000000E+00
  0.00000000E+00  0.00000000E+00  0.00000000E+00
  0.00000000E+00  0.00000000E+00  0.00000000E+00
  0.00000000E+00  0.00000000E+00  0.00000000E+00
  0.00000000E+00  0.00000000E+00  0.00000000E+00
  0.00000000E+00  0.00000000E+00  0.00000000E+00
  0.00000000E+00  0.00000000E+00  0.00000000E+00
  0.00000000E+00  0.00000000E+00  0.00000000E+00
  0.00000000E+00  0.00000000E+00  0.00000000E+00
  0.00000000E+00  0.00000000E+00  0.00000000E+00
  0.00000000E+00  0.00000000E+00  0.00000000E+00
  0.00000000E+00  0.00000000E+00  0.00000000E+00
  0.00000000E+00  0.00000000E+00  0.00000000E+00
  0.00000000E+00  0.00000000E+00  0.00000000E+00
  0.00000000E+00  0.00000000E+00  0.00000000E+00
  0.00000000E+00  0.00000000E+00  0.00000000E+00
  0.00000000E+00  0.00000000E+00  0.00000000E+00
  0.00000000E+00  0.00000000E+00  0.00000000E+00
  0.00000000E+00  0.00000000E+00  0.00000000E+00
  0.00000000E+00  0.00000000E+00  0.00000000E+00
  0.00000000E+00  0.00000000E+00  0.00000000E+00
  0.00000000E+00  0.00000000E+00  0.00000000E+00
  0.00000000E+00  0.00000000E+00  0.00000000E+00
