C O H                                   
   1.00000000000000     
    40.0000000000000000    0.0000000000000000    0.0000000000000000
     0.0000000000000000   40.0000000000000000    0.0000000000000000
     0.0000000000000000    0.0000000000000000   40.0000000000000000
   C    O    H 
    10     1    12
Selective dynamics
Direct
  0.4720879092867207  0.4904975077482163  0.4992779966341061   T   T   T
  0.4401901525139422  0.5052801831752731  0.5001273886426745   T   T   T
  0.4376498688357557  0.5397520341589015  0.5006136435639590   T   T   T
  0.4665631056888557  0.5604016907531602  0.5001921942475249   T   T   T
  0.4979110714484918  0.5463054156699201  0.4993770425229584   T   T   T
  0.5022124998539041  0.5110606244621749  0.4988818616986990   T   T   T
  0.5341011224012462  0.4951292392993025  0.4978387128416060   T   T   T
  0.5643905571641099  0.5111021059025731  0.5011956283774168   T   T   T
  0.5969449953789763  0.4939647201330146  0.4999789367037408   T   T   T
  0.4494125623222089  0.4346875800291770  0.5003569348733308   T   T   T
  0.4773868919356161  0.4576687314525216  0.4991828278860240   T   T   T
  0.5949148381203315  0.4674017295529609  0.4936360184045085   T   T   T
  0.6136749174597682  0.5066197155956189  0.4820903999891044   T   T   T
  0.6096931375006420  0.4964846340633500  0.5243590667915043   T   T   T
  0.5650460070684105  0.5380630450026942  0.5056474085913578   T   T   T
  0.5343480450206286  0.4680329508588628  0.4945951101548687   T   T   T
  0.5198125946119418  0.5624356850844947  0.4985812374905407   T   T   T
  0.4637043676626291  0.5874694204060518  0.5003572284090652   T   T   T
  0.4129856548419966  0.5513052290241944  0.5013158713212462   T   T   T
  0.4177785859175174  0.4899048124834238  0.5004625033415024   T   T   T
  0.4333105909530843  0.4382018505588761  0.4784172812470970   T   T   T
  0.4351970837136889  0.4383992639311103  0.5235333857300049   T   T   T
  0.4606814402995099  0.4098328306541319  0.4999803205371691   T   T   T
 
  0.00000000E+00  0.00000000E+00  0.00000000E+00
  0.00000000E+00  0.00000000E+00  0.00000000E+00
  0.00000000E+00  0.00000000E+00  0.00000000E+00
  0.00000000E+00  0.00000000E+00  0.00000000E+00
  0.00000000E+00  0.00000000E+00  0.00000000E+00
  0.00000000E+00  0.00000000E+00  0.00000000E+00
  0.00000000E+00  0.00000000E+00  0.00000000E+00
  0.00000000E+00  0.00000000E+00  0.00000000E+00
  0.00000000E+00  0.00000000E+00  0.00000000E+00
  0.00000000E+00  0.00000000E+00  0.00000000E+00
  0.00000000E+00  0.00000000E+00  0.00000000E+00
  0.00000000E+00  0.00000000E+00  0.00000000E+00
  0.00000000E+00  0.00000000E+00  0.00000000E+00
  0.00000000E+00  0.00000000E+00  0.00000000E+00
  0.00000000E+00  0.00000000E+00  0.00000000E+00
  0.00000000E+00  0.00000000E+00  0.00000000E+00
  0.00000000E+00  0.00000000E+00  0.00000000E+00
  0.00000000E+00  0.00000000E+00  0.00000000E+00
  0.00000000E+00  0.00000000E+00  0.00000000E+00
  0.00000000E+00  0.00000000E+00  0.00000000E+00
  0.00000000E+00  0.00000000E+00  0.00000000E+00
  0.00000000E+00  0.00000000E+00  0.00000000E+00
  0.00000000E+00  0.00000000E+00  0.00000000E+00
