C O H                                   
   1.00000000000000     
    40.0000000000000000    0.0000000000000000    0.0000000000000000
     0.0000000000000000   40.0000000000000000    0.0000000000000000
     0.0000000000000000    0.0000000000000000   40.0000000000000000
   C    O    H 
    14     1    12
Selective dynamics
Direct
  0.4568835817083058  0.5338108342596608  0.4918394142738005   T   T   T
  0.4387896394922025  0.5046821187270439  0.4989000719564795   T   T   T
  0.4564305671884544  0.4753004432944366  0.5059131870007642   T   T   T
  0.4910864525363848  0.4750562585238993  0.5058232062353558   T   T   T
  0.5092721911374021  0.5041789006510741  0.4989051574076755   T   T   T
  0.4914334507848448  0.5336017948216523  0.4919322847789922   T   T   T
  0.5461195614658023  0.5039891724701518  0.4989263627606778   T   T   T
  0.5639412268367259  0.4762571922056023  0.4871146087297386   T   T   T
  0.5986582600628007  0.4762198934314467  0.4869735865129905   T   T   T
  0.6162706758184021  0.5037808006445180  0.4988242569046039   T   T   T
  0.5988767736153495  0.5314455870282450  0.5107573217023368   T   T   T
  0.5641580567633431  0.5316123669426237  0.5106952866855339   T   T   T
  0.4016250815710429  0.5060908324961617  0.4987775524082853   T   T   T
  0.3822724628462619  0.4747013133673581  0.5066023772724921   T   T   T
  0.3869743166901895  0.5323079316630882  0.4924667050244770   T   T   T
  0.5049548323446309  0.5562886494921194  0.4858719650861729   T   T   T
  0.5508441231694207  0.5530943600350471  0.5204970038807530   T   T   T
  0.6123805284607252  0.5529202124494578  0.5202878310595004   T   T   T
  0.6433633557394498  0.5036998101081613  0.4987552788822207   T   T   T
  0.6120031785885166  0.4546841424043888  0.4773596361158104   T   T   T
  0.5504658686326142  0.4548885591159163  0.4772889913979236   T   T   T
  0.5042894249327925  0.4521794538067311  0.5118768502794228   T   T   T
  0.4431706159193035  0.4524134993851359  0.5117429919340599   T   T   T
  0.3556700617484711  0.4801780487938991  0.5054476704297640   T   T   T
  0.3883002422128539  0.4548564124838265  0.4887984638295101   T   T   T
  0.3886044749602722  0.4653065823415755  0.5314748807312614   T   T   T
  0.4431609947734660  0.5564558290567835  0.4861480567193813   T   T   T
 
  0.00000000E+00  0.00000000E+00  0.00000000E+00
  0.00000000E+00  0.00000000E+00  0.00000000E+00
  0.00000000E+00  0.00000000E+00  0.00000000E+00
  0.00000000E+00  0.00000000E+00  0.00000000E+00
  0.00000000E+00  0.00000000E+00  0.00000000E+00
  0.00000000E+00  0.00000000E+00  0.00000000E+00
  0.00000000E+00  0.00000000E+00  0.00000000E+00
  0.00000000E+00  0.00000000E+00  0.00000000E+00
  0.00000000E+00  0.00000000E+00  0.00000000E+00
  0.00000000E+00  0.00000000E+00  0.00000000E+00
  0.00000000E+00  0.00000000E+00  0.00000000E+00
  0.00000000E+00  0.00000000E+00  0.00000000E+00
  0.00000000E+00  0.00000000E+00  0.00000000E+00
  0.00000000E+00  0.00000000E+00  0.00000000E+00
  0.00000000E+00  0.00000000E+00  0.00000000E+00
  0.00000000E+00  0.00000000E+00  0.00000000E+00
  0.00000000E+00  0.00000000E+00  0.00000000E+00
  0.00000000E+00  0.00000000E+00  0.00000000E+00
  0.00000000E+00  0.00000000E+00  0.00000000E+00
  0.00000000E+00  0.00000000E+00  0.00000000E+00
  0.00000000E+00  0.00000000E+00  0.00000000E+00
  0.00000000E+00  0.00000000E+00  0.00000000E+00
  0.00000000E+00  0.00000000E+00  0.00000000E+00
  0.00000000E+00  0.00000000E+00  0.00000000E+00
  0.00000000E+00  0.00000000E+00  0.00000000E+00
  0.00000000E+00  0.00000000E+00  0.00000000E+00
  0.00000000E+00  0.00000000E+00  0.00000000E+00
