C N H                                   
   1.00000000000000     
    40.0000000000000000    0.0000000000000000    0.0000000000000000
     0.0000000000000000   40.0000000000000000    0.0000000000000000
     0.0000000000000000    0.0000000000000000   40.0000000000000000
   C    N    H 
     6     1     7
Selective dynamics
Direct
  0.4948645055420353  0.4698215963886744  0.5008144326432555   T   T   T
  0.5295904810629963  0.4699955905140877  0.5008473641646131   T   T   T
  0.5473457643590817  0.4999990000000025  0.5008715660579771   T   T   T
  0.5295904810629963  0.5300034094859079  0.5008473641646131   T   T   T
  0.4948655055420328  0.5301784036113257  0.5008144326432555   T   T   T
  0.4768825030457993  0.5000000000000000  0.5007778746479259   T   T   T
  0.4423069288147791  0.5000009999999975  0.5021326462620503   T   T   T
  0.4307979980500562  0.5210726815680501  0.4944222935341018   T   T   T
  0.4307969980500587  0.4789293184319520  0.4944222935341018   T   T   T
  0.4813326980979709  0.5537090781519756  0.5008178525972090   T   T   T
  0.5429251274255641  0.5536296560612803  0.5007963998545764   T   T   T
  0.5744451834230537  0.4999990000000025  0.5008222274445251   T   T   T
  0.5429241274255666  0.4463693439387080  0.5007963998545764   T   T   T
  0.4813306980979760  0.4462909218480243  0.5008178525972090   T   T   T
 
  0.00000000E+00  0.00000000E+00  0.00000000E+00
  0.00000000E+00  0.00000000E+00  0.00000000E+00
  0.00000000E+00  0.00000000E+00  0.00000000E+00
  0.00000000E+00  0.00000000E+00  0.00000000E+00
  0.00000000E+00  0.00000000E+00  0.00000000E+00
  0.00000000E+00  0.00000000E+00  0.00000000E+00
  0.00000000E+00  0.00000000E+00  0.00000000E+00
  0.00000000E+00  0.00000000E+00  0.00000000E+00
  0.00000000E+00  0.00000000E+00  0.00000000E+00
  0.00000000E+00  0.00000000E+00  0.00000000E+00
  0.00000000E+00  0.00000000E+00  0.00000000E+00
  0.00000000E+00  0.00000000E+00  0.00000000E+00
  0.00000000E+00  0.00000000E+00  0.00000000E+00
  0.00000000E+00  0.00000000E+00  0.00000000E+00
