C O H                                   
   1.00000000000000     
    40.0000000000000000    0.0000000000000000    0.0000000000000000
     0.0000000000000000   40.0000000000000000    0.0000000000000000
     0.0000000000000000    0.0000000000000000   40.0000000000000000
   C    O    H 
    10     1    12
Selective dynamics
Direct
  0.4857391260844449  0.5200496829373376  0.4999953434858032   T   T   T
  0.4533252707724433  0.5066624488891556  0.4999987981994892   T   T   T
  0.4487506076548139  0.4719468725219467  0.5000014690605451   T   T   T
  0.4770765270494460  0.4512658254022310  0.5000016422886342   T   T   T
  0.5092245065578717  0.4644221171535660  0.4999990842967428   T   T   T
  0.5140692390388870  0.4994160258509115  0.4999962659706598   T   T   T
  0.5471504789595409  0.5152954971004321  0.4999945334826538   T   T   T
  0.5771240990830343  0.5000531095713404  0.5000027253968483   T   T   T
  0.6099966509224301  0.5178180189717552  0.5000000198855646   T   T   T
  0.3943317981141669  0.5173264558275401  0.5000035868751256   T   T   T
  0.4278989539038204  0.5296817357683747  0.4999995614621688   T   T   T
  0.6250463838741768  0.5108736664325761  0.4779908219853139   T   T   T
  0.6250426247017544  0.5108879367027918  0.5220162468274888   T   T   T
  0.6068383157611591  0.5450973860317163  0.4999907553637970   T   T   T
  0.5783419893068386  0.4727055237547055  0.5000115667321375   T   T   T
  0.5467926419700753  0.5427076083594973  0.4999861114642899   T   T   T
  0.5306222115473173  0.4475398343182048  0.4999980113889235   T   T   T
  0.4736055307946226  0.4242124112816156  0.5000020849224842   T   T   T
  0.4239073893597214  0.4608734538070436  0.5000027797612336   T   T   T
  0.3782266831916234  0.5394519512251587  0.5000037686372693   T   T   T
  0.3891586642216085  0.5022627640201290  0.5224746772284493   T   T   T
  0.3891543515166067  0.5022604055919409  0.4775358183030736   T   T   T
  0.4885759556136179  0.5471892684800082  0.4999943269812900   T   T   T
 
  0.00000000E+00  0.00000000E+00  0.00000000E+00
  0.00000000E+00  0.00000000E+00  0.00000000E+00
  0.00000000E+00  0.00000000E+00  0.00000000E+00
  0.00000000E+00  0.00000000E+00  0.00000000E+00
  0.00000000E+00  0.00000000E+00  0.00000000E+00
  0.00000000E+00  0.00000000E+00  0.00000000E+00
  0.00000000E+00  0.00000000E+00  0.00000000E+00
  0.00000000E+00  0.00000000E+00  0.00000000E+00
  0.00000000E+00  0.00000000E+00  0.00000000E+00
  0.00000000E+00  0.00000000E+00  0.00000000E+00
  0.00000000E+00  0.00000000E+00  0.00000000E+00
  0.00000000E+00  0.00000000E+00  0.00000000E+00
  0.00000000E+00  0.00000000E+00  0.00000000E+00
  0.00000000E+00  0.00000000E+00  0.00000000E+00
  0.00000000E+00  0.00000000E+00  0.00000000E+00
  0.00000000E+00  0.00000000E+00  0.00000000E+00
  0.00000000E+00  0.00000000E+00  0.00000000E+00
  0.00000000E+00  0.00000000E+00  0.00000000E+00
  0.00000000E+00  0.00000000E+00  0.00000000E+00
  0.00000000E+00  0.00000000E+00  0.00000000E+00
  0.00000000E+00  0.00000000E+00  0.00000000E+00
  0.00000000E+00  0.00000000E+00  0.00000000E+00
  0.00000000E+00  0.00000000E+00  0.00000000E+00
