C N S H                                 
   1.00000000000000     
    40.0000000000000000    0.0000000000000000    0.0000000000000000
     0.0000000000000000   40.0000000000000000    0.0000000000000000
     0.0000000000000000    0.0000000000000000   40.0000000000000000
   C    N    S    H 
    16     3     1    18
Selective dynamics
Direct
  0.4658524762062428  0.5040806734175195  0.4999038122088012   T   T   T
  0.4342957553649768  0.5185807902353323  0.4998240530016822   T   T   T
  0.4050977010205531  0.4987460908325168  0.4997015572601103   T   T   T
  0.4092589216576135  0.4635081108406079  0.4996974419863807   T   T   T
  0.4406833997950061  0.4495427058775570  0.4998079696174311   T   T   T
  0.4704127220892980  0.4687818336071419  0.4999064870922556   T   T   T
  0.5295901829760766  0.4687862048693514  0.5000926932548083   T   T   T
  0.5593216253445398  0.4495492716361209  0.5001780359673226   T   T   T
  0.5907434465932775  0.4635170177818848  0.5002949936528024   T   T   T
  0.5949022209662584  0.4987537717507288  0.5003150366069894   T   T   T
  0.5657015738123380  0.5185873420603226  0.5001988876336562   T   T   T
  0.5341491174818643  0.5040841854133011  0.5001141468518006   T   T   T
  0.6295833445812365  0.5490226339627496  0.5004523482115057   T   T   T
  0.6556692883495449  0.4920078556778910  0.5005246213882588   T   T   T
  0.3443296028660899  0.4919952944449646  0.4994782589816743   T   T   T
  0.3704128582323348  0.5490115976126655  0.4995432669396176   T   T   T
  0.5000021402708954  0.4520785576412396  0.4999907920843891   T   T   T
  0.6259840182544042  0.5129264538581887  0.5004615734797446   T   T   T
  0.3740149475891039  0.5129159432097212  0.4995709343519019   T   T   T
  0.4999988241109640  0.5313320052693501  0.5000084502471299   T   T   T
  0.4435645602195341  0.4225701071201212  0.4998207413891820   T   T   T
  0.5675566054724074  0.5455996751489606  0.5002093342170747   T   T   T
  0.6182153707641361  0.5602349862390592  0.4781967040968533   T   T   T
  0.6179732176578554  0.5602624818574401  0.5225661566662932   T   T   T
  0.6560295425708312  0.5552148001433731  0.5006006365800036   T   T   T
  0.6776173798409529  0.5080176298721099  0.5006637624397262   T   T   T
  0.6565898947203959  0.4759281482049207  0.5226731501058636   T   T   T
  0.6567716845067731  0.4760504212779262  0.4782951983485254   T   T   T
  0.6123447269499059  0.4472555631542761  0.5003727704503255   T   T   T
  0.5564406422105077  0.4225757409925151  0.5001469827105944   T   T   T
  0.3876590291427132  0.4472475219992211  0.4996054391625914   T   T   T
  0.3432473632192273  0.4759878540618745  0.5216723789369189   T   T   T
  0.3433901986888608  0.4759680888574507  0.4772925572865745   T   T   T
  0.3223813153565204  0.5080056353238250  0.4993989445002325   T   T   T
  0.3817917829526145  0.5602459836554914  0.5217826019181855   T   T   T
  0.3820147772067575  0.5602298949495770  0.4774144664669088   T   T   T
  0.3439683569298888  0.5552050079061608  0.4994030119929563   T   T   T
  0.4324393840275206  0.5455921192365203  0.4998228019129122   T   T   T
 
  0.00000000E+00  0.00000000E+00  0.00000000E+00
  0.00000000E+00  0.00000000E+00  0.00000000E+00
  0.00000000E+00  0.00000000E+00  0.00000000E+00
  0.00000000E+00  0.00000000E+00  0.00000000E+00
  0.00000000E+00  0.00000000E+00  0.00000000E+00
  0.00000000E+00  0.00000000E+00  0.00000000E+00
  0.00000000E+00  0.00000000E+00  0.00000000E+00
  0.00000000E+00  0.00000000E+00  0.00000000E+00
  0.00000000E+00  0.00000000E+00  0.00000000E+00
  0.00000000E+00  0.00000000E+00  0.00000000E+00
  0.00000000E+00  0.00000000E+00  0.00000000E+00
  0.00000000E+00  0.00000000E+00  0.00000000E+00
  0.00000000E+00  0.00000000E+00  0.00000000E+00
  0.00000000E+00  0.00000000E+00  0.00000000E+00
  0.00000000E+00  0.00000000E+00  0.00000000E+00
  0.00000000E+00  0.00000000E+00  0.00000000E+00
  0.00000000E+00  0.00000000E+00  0.00000000E+00
  0.00000000E+00  0.00000000E+00  0.00000000E+00
  0.00000000E+00  0.00000000E+00  0.00000000E+00
  0.00000000E+00  0.00000000E+00  0.00000000E+00
  0.00000000E+00  0.00000000E+00  0.00000000E+00
  0.00000000E+00  0.00000000E+00  0.00000000E+00
  0.00000000E+00  0.00000000E+00  0.00000000E+00
  0.00000000E+00  0.00000000E+00  0.00000000E+00
  0.00000000E+00  0.00000000E+00  0.00000000E+00
  0.00000000E+00  0.00000000E+00  0.00000000E+00
  0.00000000E+00  0.00000000E+00  0.00000000E+00
  0.00000000E+00  0.00000000E+00  0.00000000E+00
  0.00000000E+00  0.00000000E+00  0.00000000E+00
  0.00000000E+00  0.00000000E+00  0.00000000E+00
  0.00000000E+00  0.00000000E+00  0.00000000E+00
  0.00000000E+00  0.00000000E+00  0.00000000E+00
  0.00000000E+00  0.00000000E+00  0.00000000E+00
  0.00000000E+00  0.00000000E+00  0.00000000E+00
  0.00000000E+00  0.00000000E+00  0.00000000E+00
  0.00000000E+00  0.00000000E+00  0.00000000E+00
  0.00000000E+00  0.00000000E+00  0.00000000E+00
  0.00000000E+00  0.00000000E+00  0.00000000E+00
