!PBE0 def2-SV(p) Opt Freq d3 TightSCF SlowConv RIJCOSX defgrid2
 
%pal
nprocs 4
end
 
%scf
MaxIter 1500
end
 
%maxcore 3000
 

 
* xyz 0 1
C     0.7337668   -1.1625640    0.2202960 
C    -0.7336962   -1.1626089   -0.2203508 
H    -1.2673393   -2.0118351    0.2073477 
H    -0.7841481   -1.2053123   -1.3191725 
O    -1.3941529   -0.0000456    0.2424650 
C    -0.7337738    1.1625756   -0.2203171 
C     0.7336953    1.1626175    0.2203232 
H     1.2673399    2.0118379   -0.2073808 
H     0.7841528    1.2053149    1.3191460 
O     1.3941480    0.0000526   -0.2424969 
H    -1.2674704    2.0117551    0.2074062 
H    -0.7842308    1.2053019   -1.3191397 
H     1.2674732   -2.0117443   -0.2074067 
H     0.7842070   -1.2052678    1.3191130
*
