C N O H                                 
   1.00000000000000     
    40.0000000000000000    0.0000000000000000    0.0000000000000000
     0.0000000000000000   40.0000000000000000    0.0000000000000000
     0.0000000000000000    0.0000000000000000   40.0000000000000000
   C    N    O    H 
     7     1     1     7
Selective dynamics
Direct
  0.5160691926657545  0.4676412110601774  0.5000000000000000   T   T   T
  0.5499533696482070  0.4740898761616565  0.5000000000000000   T   T   T
  0.5613753046531307  0.5074572027484027  0.5000000000000000   T   T   T
  0.5387208754942631  0.5344816714208793  0.5000000000000000   T   T   T
  0.5047807616613685  0.5284888404303638  0.5000000000000000   T   T   T
  0.4928217508892107  0.4947236943597647  0.5000000000000000   T   T   T
  0.4582589852659745  0.4868176767615908  0.5000000000000000   T   T   T
  0.4358081856944989  0.5113616614465141  0.5000000000000000   T   T   T
  0.4047853531212079  0.4987862889731818  0.5000009999999975   T   T   T
  0.3896269510494135  0.5182829322863161  0.5000009999999975   T   T   T
  0.4500191017606766  0.4607254138969674  0.5000000000000000   T   T   T
  0.4869146174665755  0.5489978355578440  0.5000000000000000   T   T   T
  0.5481716962214027  0.5599866223707533  0.5000000000000000   T   T   T
  0.5881436006668851  0.5124255015265595  0.4999990000000025   T   T   T
  0.5678819356605421  0.4536358171714762  0.4999990000000025   T   T   T
  0.5066693180808935  0.4420977538275522  0.5000000000000000   T   T   T
 
  0.00000000E+00  0.00000000E+00  0.00000000E+00
  0.00000000E+00  0.00000000E+00  0.00000000E+00
  0.00000000E+00  0.00000000E+00  0.00000000E+00
  0.00000000E+00  0.00000000E+00  0.00000000E+00
  0.00000000E+00  0.00000000E+00  0.00000000E+00
  0.00000000E+00  0.00000000E+00  0.00000000E+00
  0.00000000E+00  0.00000000E+00  0.00000000E+00
  0.00000000E+00  0.00000000E+00  0.00000000E+00
  0.00000000E+00  0.00000000E+00  0.00000000E+00
  0.00000000E+00  0.00000000E+00  0.00000000E+00
  0.00000000E+00  0.00000000E+00  0.00000000E+00
  0.00000000E+00  0.00000000E+00  0.00000000E+00
  0.00000000E+00  0.00000000E+00  0.00000000E+00
  0.00000000E+00  0.00000000E+00  0.00000000E+00
  0.00000000E+00  0.00000000E+00  0.00000000E+00
  0.00000000E+00  0.00000000E+00  0.00000000E+00
