C N H                                   
   1.00000000000000     
    40.0000000000000000    0.0000000000000000    0.0000000000000000
     0.0000000000000000   40.0000000000000000    0.0000000000000000
     0.0000000000000000    0.0000000000000000   40.0000000000000000
   C    N    H 
     6     1    15
Selective dynamics
Direct
  0.4422452000866786  0.4710996456084008  0.4926412871462822   T   T   T
  0.4691851303452725  0.4984007297579550  0.4931934941117319   T   T   T
  0.5319432568864723  0.4938171152340560  0.4917307338658922   T   T   T
  0.5403317519717836  0.5313786946395156  0.4912006122977764   T   T   T
  0.5600724737381706  0.4740520147483138  0.5084779645327714   T   T   T
  0.4561146847396096  0.5297045854290132  0.5111607144845858   T   T   T
  0.5002049472102715  0.4849876960747105  0.5079132995874439   T   T   T
  0.5013360909178415  0.4907986278717761  0.5327813576852339   T   T   T
  0.5420944745676887  0.5411718727348710  0.5168762814524718   T   T   T
  0.5212327376936006  0.5458859683751418  0.4778268118811388   T   T   T
  0.5644428227458010  0.5358895799570411  0.4787585259694240   T   T   T
  0.5547515590963040  0.4471372738359161  0.5078779817750979   T   T   T
  0.5841194275990335  0.4786676266604554  0.4960223479606134   T   T   T
  0.5628509729660106  0.4816366088658807  0.5348174827638607   T   T   T
  0.5298061338122775  0.4851851810465638  0.4655730863756669   T   T   T
  0.4745416672243262  0.5500337781503613  0.5109716835742225   T   T   T
  0.4503318023319928  0.5237422330842568  0.5374232502893286   T   T   T
  0.4329605904853785  0.5389441714808323  0.4995722248982326   T   T   T
  0.4750190247640994  0.5050932051064448  0.4670511401606225   T   T   T
  0.4511078151586512  0.4490583262680596  0.4788932185328088   T   T   T
  0.4362547840993363  0.4631509056699416  0.5183009822465389   T   T   T
  0.4190516515593952  0.4801661594005160  0.4809365184082597   T   T   T
 
  0.00000000E+00  0.00000000E+00  0.00000000E+00
  0.00000000E+00  0.00000000E+00  0.00000000E+00
  0.00000000E+00  0.00000000E+00  0.00000000E+00
  0.00000000E+00  0.00000000E+00  0.00000000E+00
  0.00000000E+00  0.00000000E+00  0.00000000E+00
  0.00000000E+00  0.00000000E+00  0.00000000E+00
  0.00000000E+00  0.00000000E+00  0.00000000E+00
  0.00000000E+00  0.00000000E+00  0.00000000E+00
  0.00000000E+00  0.00000000E+00  0.00000000E+00
  0.00000000E+00  0.00000000E+00  0.00000000E+00
  0.00000000E+00  0.00000000E+00  0.00000000E+00
  0.00000000E+00  0.00000000E+00  0.00000000E+00
  0.00000000E+00  0.00000000E+00  0.00000000E+00
  0.00000000E+00  0.00000000E+00  0.00000000E+00
  0.00000000E+00  0.00000000E+00  0.00000000E+00
  0.00000000E+00  0.00000000E+00  0.00000000E+00
  0.00000000E+00  0.00000000E+00  0.00000000E+00
  0.00000000E+00  0.00000000E+00  0.00000000E+00
  0.00000000E+00  0.00000000E+00  0.00000000E+00
  0.00000000E+00  0.00000000E+00  0.00000000E+00
  0.00000000E+00  0.00000000E+00  0.00000000E+00
  0.00000000E+00  0.00000000E+00  0.00000000E+00
