C N H                                   
   1.00000000000000     
    40.0000000000000000    0.0000000000000000    0.0000000000000000
     0.0000000000000000   40.0000000000000000    0.0000000000000000
     0.0000000000000000    0.0000000000000000   40.0000000000000000
   C    N    H 
     9     1     7
Selective dynamics
Direct
  0.5291464498201935  0.4681862372059585  0.5000000000000000   T   T   T
  0.5585120196624566  0.4860275138123428  0.5000000000000000   T   T   T
  0.5579149247547923  0.5213425465265631  0.5000000000000000   T   T   T
  0.5280570399755896  0.5383771465839885  0.5000000000000000   T   T   T
  0.4974167257787541  0.5207381647216061  0.5000000000000000   T   T   T
  0.4399860618795756  0.5215088670059511  0.5000000000000000   T   T   T
  0.4379673403732049  0.4862728463157241  0.5000000000000000   T   T   T
  0.4670149189543087  0.4680338651076490  0.5000000000000000   T   T   T
  0.4980067135362796  0.4849860162625438  0.5000000000000000   T   T   T
  0.4682667896342221  0.5385052023058468  0.5000000000000000   T   T   T
  0.4665936906653227  0.4409022952437874  0.5000000000000000   T   T   T
  0.4137143658574764  0.4742392394623496  0.5000000000000000   T   T   T
  0.4171034213116399  0.5361912176796569  0.5000000000000000   T   T   T
  0.5272575791183601  0.5654714009740726  0.5000000000000000   T   T   T
  0.5812877522067478  0.5350784387821391  0.5000000000000000   T   T   T
  0.5823249147573878  0.4730816478499118  0.5000000000000000   T   T   T
  0.5294302917137140  0.4410563541599187  0.5000000000000000   T   T   T
 
  0.00000000E+00  0.00000000E+00  0.00000000E+00
  0.00000000E+00  0.00000000E+00  0.00000000E+00
  0.00000000E+00  0.00000000E+00  0.00000000E+00
  0.00000000E+00  0.00000000E+00  0.00000000E+00
  0.00000000E+00  0.00000000E+00  0.00000000E+00
  0.00000000E+00  0.00000000E+00  0.00000000E+00
  0.00000000E+00  0.00000000E+00  0.00000000E+00
  0.00000000E+00  0.00000000E+00  0.00000000E+00
  0.00000000E+00  0.00000000E+00  0.00000000E+00
  0.00000000E+00  0.00000000E+00  0.00000000E+00
  0.00000000E+00  0.00000000E+00  0.00000000E+00
  0.00000000E+00  0.00000000E+00  0.00000000E+00
  0.00000000E+00  0.00000000E+00  0.00000000E+00
  0.00000000E+00  0.00000000E+00  0.00000000E+00
  0.00000000E+00  0.00000000E+00  0.00000000E+00
  0.00000000E+00  0.00000000E+00  0.00000000E+00
  0.00000000E+00  0.00000000E+00  0.00000000E+00
