C H                                     
   1.00000000000000     
    40.0000000000000000    0.0000000000000000    0.0000000000000000
     0.0000000000000000   40.0000000000000000    0.0000000000000000
     0.0000000000000000    0.0000000000000000   40.0000000000000000
   C    H 
     7     8
Selective dynamics
Direct
  0.5525308904143671  0.4999977512093707  0.5001584205057412   T   T   T
  0.5348770790113093  0.4698080320502527  0.4999681143779853   T   T   T
  0.4999063531477148  0.4698806498565702  0.4996624411157597   T   T   T
  0.4818518802407681  0.5000024892143742  0.4996066977928493   T   T   T
  0.4441790453873580  0.5000014343857870  0.5001581404157349   T   T   T
  0.4999093854515593  0.5301220329601009  0.4996668837359195   T   T   T
  0.5348794795502130  0.5301901206200341  0.4999721963888462   T   T   T
  0.4339591178601054  0.5223427974938133  0.4878691108278375   T   T   T
  0.4339571293498068  0.4777357736012107  0.4877349744660719   T   T   T
  0.4347890289427951  0.4999226052686225  0.5260544389082895   T   T   T
  0.5483538320331363  0.5539267367554785  0.4999754946898634   T   T   T
  0.4863311057719457  0.5538327497966833  0.4994420105957929   T   T   T
  0.4863250661733716  0.4461710697189503  0.4994360691875315   T   T   T
  0.5483480961211882  0.4460698336795161  0.4999694442709668   T   T   T
  0.5798045105443492  0.4999969233892614  0.5003235627208014   T   T   T
 
  0.00000000E+00  0.00000000E+00  0.00000000E+00
  0.00000000E+00  0.00000000E+00  0.00000000E+00
  0.00000000E+00  0.00000000E+00  0.00000000E+00
  0.00000000E+00  0.00000000E+00  0.00000000E+00
  0.00000000E+00  0.00000000E+00  0.00000000E+00
  0.00000000E+00  0.00000000E+00  0.00000000E+00
  0.00000000E+00  0.00000000E+00  0.00000000E+00
  0.00000000E+00  0.00000000E+00  0.00000000E+00
  0.00000000E+00  0.00000000E+00  0.00000000E+00
  0.00000000E+00  0.00000000E+00  0.00000000E+00
  0.00000000E+00  0.00000000E+00  0.00000000E+00
  0.00000000E+00  0.00000000E+00  0.00000000E+00
  0.00000000E+00  0.00000000E+00  0.00000000E+00
  0.00000000E+00  0.00000000E+00  0.00000000E+00
  0.00000000E+00  0.00000000E+00  0.00000000E+00
