C O H                                   
   1.00000000000000     
    40.0000000000000000    0.0000000000000000    0.0000000000000000
     0.0000000000000000   40.0000000000000000    0.0000000000000000
     0.0000000000000000    0.0000000000000000   40.0000000000000000
   C    O    H 
     9     1    10
Selective dynamics
Direct
  0.5066994548433144  0.5241775576241992  0.4997664052784643   T   T   T
  0.4718349551600554  0.5245317786513155  0.4996430285083804   T   T   T
  0.4534196160926669  0.4946812554974116  0.4996807995141239   T   T   T
  0.4711163236048250  0.4642980210581911  0.4997325541017403   T   T   T
  0.5058333072375660  0.4637846355607280  0.4998762355123603   T   T   T
  0.5242755297149060  0.4937368859760625  0.4999177199015321   T   T   T
  0.5615768535130954  0.4919185661294563  0.5000250146238301   T   T   T
  0.5813634902774751  0.5241927725117819  0.5000780471289801   T   T   T
  0.4158474503488563  0.4949444839259272  0.5002569950126698   T   T   T
  0.5761076625241373  0.4646595529018640  0.5000917772807654   T   T   T
  0.6081021970075184  0.5183562940343123  0.5002037766474459   T   T   T
  0.5752282874238190  0.5394342499986706  0.5221306504341072   T   T   T
  0.5754305920125091  0.5393602231379759  0.4779181500720426   T   T   T
  0.5194556005278557  0.4401757741654038  0.4998575227539206   T   T   T
  0.4572854625330578  0.4407636631848462  0.4995747377692865   T   T   T
  0.4065684732400783  0.4917787566251803  0.5259900899542700   T   T   T
  0.4057047443407669  0.5185786541851343  0.4907263410998297   T   T   T
  0.4054471602706897  0.4743282760841510  0.4854053748354517   T   T   T
  0.4585927005233046  0.5483943903760320  0.4994411747329579   T   T   T
  0.5201101388035028  0.5479052083713611  0.4996856048378362   T   T   T
 
  0.00000000E+00  0.00000000E+00  0.00000000E+00
  0.00000000E+00  0.00000000E+00  0.00000000E+00
  0.00000000E+00  0.00000000E+00  0.00000000E+00
  0.00000000E+00  0.00000000E+00  0.00000000E+00
  0.00000000E+00  0.00000000E+00  0.00000000E+00
  0.00000000E+00  0.00000000E+00  0.00000000E+00
  0.00000000E+00  0.00000000E+00  0.00000000E+00
  0.00000000E+00  0.00000000E+00  0.00000000E+00
  0.00000000E+00  0.00000000E+00  0.00000000E+00
  0.00000000E+00  0.00000000E+00  0.00000000E+00
  0.00000000E+00  0.00000000E+00  0.00000000E+00
  0.00000000E+00  0.00000000E+00  0.00000000E+00
  0.00000000E+00  0.00000000E+00  0.00000000E+00
  0.00000000E+00  0.00000000E+00  0.00000000E+00
  0.00000000E+00  0.00000000E+00  0.00000000E+00
  0.00000000E+00  0.00000000E+00  0.00000000E+00
  0.00000000E+00  0.00000000E+00  0.00000000E+00
  0.00000000E+00  0.00000000E+00  0.00000000E+00
  0.00000000E+00  0.00000000E+00  0.00000000E+00
  0.00000000E+00  0.00000000E+00  0.00000000E+00
