C N H                                   
   1.00000000000000     
    40.0000000000000000    0.0000000000000000    0.0000000000000000
     0.0000000000000000   40.0000000000000000    0.0000000000000000
     0.0000000000000000    0.0000000000000000   40.0000000000000000
   C    N    H 
     4     1     9
Selective dynamics
Direct
  0.5126810049540609  0.4698194344992480  0.4996118651028063   T   T   T
  0.5126729945783919  0.5301865384531442  0.4996839870978117   T   T   T
  0.4759041924233380  0.5193811363984618  0.5002688353336677   T   T   T
  0.4759124392098352  0.4806090561185037  0.5003483691356919   T   T   T
  0.5317185424063627  0.5000033543150459  0.5009909066784670   T   T   T
  0.5571447382324161  0.5000058865483905  0.5020587108514752   T   T   T
  0.4637779613131634  0.4708814901313209  0.5226850939695964   T   T   T
  0.4627504047507778  0.4706558706379066  0.4787134761255792   T   T   T
  0.4636310831308761  0.5292025682224379  0.5224870391739408   T   T   T
  0.4628670477047496  0.5292326588445596  0.4785113474747404   T   T   T
  0.5200870834233039  0.5436835035519118  0.4769282025702229   T   T   T
  0.5203742136538717  0.5461934168550722  0.5205519556595365   T   T   T
  0.5200333641267294  0.4564264358401758  0.4767738554848096   T   T   T
  0.5204459300920924  0.4537216495838491  0.5203853553416565   T   T   T
 
  0.00000000E+00  0.00000000E+00  0.00000000E+00
  0.00000000E+00  0.00000000E+00  0.00000000E+00
  0.00000000E+00  0.00000000E+00  0.00000000E+00
  0.00000000E+00  0.00000000E+00  0.00000000E+00
  0.00000000E+00  0.00000000E+00  0.00000000E+00
  0.00000000E+00  0.00000000E+00  0.00000000E+00
  0.00000000E+00  0.00000000E+00  0.00000000E+00
  0.00000000E+00  0.00000000E+00  0.00000000E+00
  0.00000000E+00  0.00000000E+00  0.00000000E+00
  0.00000000E+00  0.00000000E+00  0.00000000E+00
  0.00000000E+00  0.00000000E+00  0.00000000E+00
  0.00000000E+00  0.00000000E+00  0.00000000E+00
  0.00000000E+00  0.00000000E+00  0.00000000E+00
  0.00000000E+00  0.00000000E+00  0.00000000E+00
