C O H                                   
   1.00000000000000     
    40.0000000000000000    0.0000000000000000    0.0000000000000000
     0.0000000000000000   40.0000000000000000    0.0000000000000000
     0.0000000000000000    0.0000000000000000   40.0000000000000000
   C    O    H 
    14     1    12
Selective dynamics
Direct
  0.4564607871056126  0.5349309282438028  0.4954777941267565   T   T   T
  0.4371787449813027  0.5050832822561375  0.4995652552341951   T   T   T
  0.4559111785457830  0.4748411551607035  0.5030234886171954   T   T   T
  0.4904868230185926  0.4745452948913567  0.5023735833070191   T   T   T
  0.5097726022558007  0.5043616486631350  0.4987829216044233   T   T   T
  0.4909528113309207  0.5345385528522328  0.4953920641460243   T   T   T
  0.5461416260380858  0.5040865091730780  0.4987092691136041   T   T   T
  0.5647997766269057  0.4746702291930873  0.4913236200403261   T   T   T
  0.5995876605099895  0.4744494154917760  0.4913277550985455   T   T   T
  0.6178384062892803  0.5034853048379233  0.4987943775873873   T   T   T
  0.6000671134798168  0.5328327009923370  0.5062299830246388   T   T   T
  0.5652812616423191  0.5332027668947887  0.5061320464001398   T   T   T
  0.4011053200199441  0.5065375665898202  0.5000189651840401   T   T   T
  0.3815728403405814  0.4742182484656112  0.5055285299505172   T   T   T
  0.3848885237713517  0.5336079234652402  0.4962997413869203   T   T   T
  0.5042300194178608  0.5581197462177769  0.4916362082453958   T   T   T
  0.5524349263032562  0.5563285718685975  0.5128050036050311   T   T   T
  0.6136466474260089  0.5556974813252111  0.5124928353455118   T   T   T
  0.6451010890586275  0.5032448357592401  0.4988282007829454   T   T   T
  0.6127828239031956  0.4513481683547553  0.4851216078406964   T   T   T
  0.5515567663731531  0.4517773679336941  0.4846294677354877   T   T   T
  0.5032972663643420  0.4506659608911150  0.5057336445125458   T   T   T
  0.4427578464004114  0.4511775659880044  0.5065465118485548   T   T   T
  0.3547935901059418  0.4799704396509341  0.5046836038669511   T   T   T
  0.3871461089503541  0.4551673693241867  0.4864116253010735   T   T   T
  0.3873574797330264  0.4627526940739841  0.5299293995623771   T   T   T
  0.4428499600075710  0.5583592714414465  0.4922034965316939   T   T   T
 
  0.00000000E+00  0.00000000E+00  0.00000000E+00
  0.00000000E+00  0.00000000E+00  0.00000000E+00
  0.00000000E+00  0.00000000E+00  0.00000000E+00
  0.00000000E+00  0.00000000E+00  0.00000000E+00
  0.00000000E+00  0.00000000E+00  0.00000000E+00
  0.00000000E+00  0.00000000E+00  0.00000000E+00
  0.00000000E+00  0.00000000E+00  0.00000000E+00
  0.00000000E+00  0.00000000E+00  0.00000000E+00
  0.00000000E+00  0.00000000E+00  0.00000000E+00
  0.00000000E+00  0.00000000E+00  0.00000000E+00
  0.00000000E+00  0.00000000E+00  0.00000000E+00
  0.00000000E+00  0.00000000E+00  0.00000000E+00
  0.00000000E+00  0.00000000E+00  0.00000000E+00
  0.00000000E+00  0.00000000E+00  0.00000000E+00
  0.00000000E+00  0.00000000E+00  0.00000000E+00
  0.00000000E+00  0.00000000E+00  0.00000000E+00
  0.00000000E+00  0.00000000E+00  0.00000000E+00
  0.00000000E+00  0.00000000E+00  0.00000000E+00
  0.00000000E+00  0.00000000E+00  0.00000000E+00
  0.00000000E+00  0.00000000E+00  0.00000000E+00
  0.00000000E+00  0.00000000E+00  0.00000000E+00
  0.00000000E+00  0.00000000E+00  0.00000000E+00
  0.00000000E+00  0.00000000E+00  0.00000000E+00
  0.00000000E+00  0.00000000E+00  0.00000000E+00
  0.00000000E+00  0.00000000E+00  0.00000000E+00
  0.00000000E+00  0.00000000E+00  0.00000000E+00
  0.00000000E+00  0.00000000E+00  0.00000000E+00
