C N O H                                 
   1.00000000000000     
    40.0000000000000000    0.0000000000000000    0.0000000000000000
     0.0000000000000000   40.0000000000000000    0.0000000000000000
     0.0000000000000000    0.0000000000000000   40.0000000000000000
   C    N    O    H 
     9     1     2     7
Selective dynamics
Direct
  0.5169405605401352  0.4640783757801472  0.5000002972196143   T   T   T
  0.5512661252851956  0.4665505672508274  0.5000009258238904   T   T   T
  0.5673604451402596  0.4986540436796645  0.4999938261659693   T   T   T
  0.5464768227575121  0.5278682810017656  0.4999921892175152   T   T   T
  0.5121513877723061  0.5250876944376728  0.4999940144584301   T   T   T
  0.4959083985630244  0.4931052770314182  0.4999997271626881   T   T   T
  0.4601590123984423  0.4889802779635559  0.5000025400806152   T   T   T
  0.4071278296176430  0.5166502800400323  0.5000072998265210   T   T   T
  0.6022601772806269  0.5013532112398593  0.4999960393881153   T   T   T
  0.6317719662746697  0.5035972379966651  0.4999937816496427   T   T   T
  0.4446030175206914  0.4618034939271141  0.5000036001472949   T   T   T
  0.4429714022651794  0.5192899983820283  0.5000065493563355   T   T   T
  0.3981646641985677  0.5034076430556240  0.4776472479309035   T   T   T
  0.3978770545369201  0.5424423233503077  0.5000187042718238   T   T   T
  0.3981669381789175  0.5033876535881916  0.5223562701948481   T   T   T
  0.4969699817547308  0.5477301613004286  0.4999953871207836   T   T   T
  0.5581264878179724  0.5525551268864888  0.4999919864910112   T   T   T
  0.5665905134741394  0.4439641970802697  0.4999985299118208   T   T   T
  0.5051072146230737  0.4394951560079150  0.5000010835822195   T   T   T
 
  0.00000000E+00  0.00000000E+00  0.00000000E+00
  0.00000000E+00  0.00000000E+00  0.00000000E+00
  0.00000000E+00  0.00000000E+00  0.00000000E+00
  0.00000000E+00  0.00000000E+00  0.00000000E+00
  0.00000000E+00  0.00000000E+00  0.00000000E+00
  0.00000000E+00  0.00000000E+00  0.00000000E+00
  0.00000000E+00  0.00000000E+00  0.00000000E+00
  0.00000000E+00  0.00000000E+00  0.00000000E+00
  0.00000000E+00  0.00000000E+00  0.00000000E+00
  0.00000000E+00  0.00000000E+00  0.00000000E+00
  0.00000000E+00  0.00000000E+00  0.00000000E+00
  0.00000000E+00  0.00000000E+00  0.00000000E+00
  0.00000000E+00  0.00000000E+00  0.00000000E+00
  0.00000000E+00  0.00000000E+00  0.00000000E+00
  0.00000000E+00  0.00000000E+00  0.00000000E+00
  0.00000000E+00  0.00000000E+00  0.00000000E+00
  0.00000000E+00  0.00000000E+00  0.00000000E+00
  0.00000000E+00  0.00000000E+00  0.00000000E+00
  0.00000000E+00  0.00000000E+00  0.00000000E+00
