C H                                     
   1.00000000000000     
    40.0000000000000000    0.0000000000000000    0.0000000000000000
     0.0000000000000000   40.0000000000000000    0.0000000000000000
     0.0000000000000000    0.0000000000000000   40.0000000000000000
   C    H 
    14    12
Selective dynamics
Direct
  0.5598628064909845  0.4795742203938433  0.5168995565937379   T   T   T
  0.5317592054184173  0.4904259146261694  0.4990620853386734   T   T   T
  0.5345194825025611  0.5194801820853150  0.4797025098822259   T   T   T
  0.5645535258731587  0.5367995787386015  0.4778085575876810   T   T   T
  0.5923369846625189  0.5256417711928826  0.4955376186684326   T   T   T
  0.5898648390031697  0.4969886042261712  0.5151324195973300   T   T   T
  0.5000000000000000  0.4713959536165396  0.5000000000000000   T   T   T
  0.5000000000000000  0.4378476282866935  0.4999990000000025   T   T   T
  0.4682407945815829  0.4904259146261694  0.5009379146613265   T   T   T
  0.4401371935090157  0.4795752203938479  0.4831004434062625   T   T   T
  0.4101351609968306  0.4969896042261687  0.4848675804026700   T   T   T
  0.4076630153374811  0.5256427711928801  0.5044623813315676   T   T   T
  0.4354464741268414  0.5367995787386015  0.5221924424123306   T   T   T
  0.4654805174974390  0.5194801820853150  0.5202984901177783   T   T   T
  0.6112800171790230  0.4883743957207206  0.5293510277812817   T   T   T
  0.6156979443870678  0.5393158706942320  0.4942723833968801   T   T   T
  0.5662851465418579  0.5590736979552929  0.4624531366207413   T   T   T
  0.5129690768433482  0.5282754668353510  0.4657962217319535   T   T   T
  0.4768980073823239  0.4238281012932417  0.5018112745104564   T   T   T
  0.5231009926176787  0.4238271012932371  0.4981867254895415   T   T   T
  0.4870309231566521  0.5282744668353535  0.5342047782680441   T   T   T
  0.4337148534581490  0.5590726979552955  0.5375488633792607   T   T   T
  0.3843020556129323  0.5393168706942366  0.5057286166031176   T   T   T
  0.3887199828209769  0.4883753957207181  0.4706479722187207   T   T   T
  0.4421196317202241  0.4575989052865592  0.4673528041915233   T   T   T
  0.5578803682797758  0.4575979052865617  0.5326451958084750   T   T   T
 
  0.00000000E+00  0.00000000E+00  0.00000000E+00
  0.00000000E+00  0.00000000E+00  0.00000000E+00
  0.00000000E+00  0.00000000E+00  0.00000000E+00
  0.00000000E+00  0.00000000E+00  0.00000000E+00
  0.00000000E+00  0.00000000E+00  0.00000000E+00
  0.00000000E+00  0.00000000E+00  0.00000000E+00
  0.00000000E+00  0.00000000E+00  0.00000000E+00
  0.00000000E+00  0.00000000E+00  0.00000000E+00
  0.00000000E+00  0.00000000E+00  0.00000000E+00
  0.00000000E+00  0.00000000E+00  0.00000000E+00
  0.00000000E+00  0.00000000E+00  0.00000000E+00
  0.00000000E+00  0.00000000E+00  0.00000000E+00
  0.00000000E+00  0.00000000E+00  0.00000000E+00
  0.00000000E+00  0.00000000E+00  0.00000000E+00
  0.00000000E+00  0.00000000E+00  0.00000000E+00
  0.00000000E+00  0.00000000E+00  0.00000000E+00
  0.00000000E+00  0.00000000E+00  0.00000000E+00
  0.00000000E+00  0.00000000E+00  0.00000000E+00
  0.00000000E+00  0.00000000E+00  0.00000000E+00
  0.00000000E+00  0.00000000E+00  0.00000000E+00
  0.00000000E+00  0.00000000E+00  0.00000000E+00
  0.00000000E+00  0.00000000E+00  0.00000000E+00
  0.00000000E+00  0.00000000E+00  0.00000000E+00
  0.00000000E+00  0.00000000E+00  0.00000000E+00
  0.00000000E+00  0.00000000E+00  0.00000000E+00
  0.00000000E+00  0.00000000E+00  0.00000000E+00
