C H                                     
   1.00000000000000     
    40.0000000000000000    0.0000000000000000    0.0000000000000000
     0.0000000000000000   40.0000000000000000    0.0000000000000000
     0.0000000000000000    0.0000000000000000   40.0000000000000000
   C    H 
    10    12
Selective dynamics
Direct
  0.5268735072779658  0.4685641765313098  0.5000025917620410   T   T   T
  0.5361052823117400  0.5025206457493764  0.5000026211147823   T   T   T
  0.5102998110869069  0.5264408258338851  0.5000015437413513   T   T   T
  0.4764165696638014  0.5176889386147721  0.5000007023209408   T   T   T
  0.4675736963627622  0.4834704727650702  0.5000016170368289   T   T   T
  0.4932595106734193  0.4595062238988217  0.5000029431657200   T   T   T
  0.4314860081650265  0.4728532451601759  0.5000005785813236   T   T   T
  0.4498980367109393  0.5443949614306774  0.4999991411230867   T   T   T
  0.5709600943111450  0.5140663363557653  0.5000029857339183   T   T   T
  0.5987127373077629  0.4950804660516348  0.4999899211220205   T   T   T
  0.4865596327312829  0.4330246291954747  0.5000053684467387   T   T   T
  0.4291830251780051  0.4455155251871881  0.5000024368719378   T   T   T
  0.4181622560406015  0.4825838841476114  0.4779495381219799   T   T   T
  0.4181594343992033  0.4825874308573671  0.5220482965384156   T   T   T
  0.4335454777851183  0.5422820922815297  0.5220532375318636   T   T   T
  0.4335436503923430  0.5422771309431391  0.4779471723180353   T   T   T
  0.4610485478400568  0.5694612733746607  0.4999957496515156   T   T   T
  0.5170151445758076  0.5529480832259233  0.5000014598566341   T   T   T
  0.5978694634217736  0.4677970146974836  0.4999780418931701   T   T   T
  0.6234330822158609  0.5065670625406156  0.4999924954391967   T   T   T
  0.5739332885045688  0.5412980783497775  0.5000144021007875   T   T   T
  0.5459607430439259  0.4490725028077737  0.5000071555277326   T   T   T
 
  0.00000000E+00  0.00000000E+00  0.00000000E+00
  0.00000000E+00  0.00000000E+00  0.00000000E+00
  0.00000000E+00  0.00000000E+00  0.00000000E+00
  0.00000000E+00  0.00000000E+00  0.00000000E+00
  0.00000000E+00  0.00000000E+00  0.00000000E+00
  0.00000000E+00  0.00000000E+00  0.00000000E+00
  0.00000000E+00  0.00000000E+00  0.00000000E+00
  0.00000000E+00  0.00000000E+00  0.00000000E+00
  0.00000000E+00  0.00000000E+00  0.00000000E+00
  0.00000000E+00  0.00000000E+00  0.00000000E+00
  0.00000000E+00  0.00000000E+00  0.00000000E+00
  0.00000000E+00  0.00000000E+00  0.00000000E+00
  0.00000000E+00  0.00000000E+00  0.00000000E+00
  0.00000000E+00  0.00000000E+00  0.00000000E+00
  0.00000000E+00  0.00000000E+00  0.00000000E+00
  0.00000000E+00  0.00000000E+00  0.00000000E+00
  0.00000000E+00  0.00000000E+00  0.00000000E+00
  0.00000000E+00  0.00000000E+00  0.00000000E+00
  0.00000000E+00  0.00000000E+00  0.00000000E+00
  0.00000000E+00  0.00000000E+00  0.00000000E+00
  0.00000000E+00  0.00000000E+00  0.00000000E+00
  0.00000000E+00  0.00000000E+00  0.00000000E+00
