C N H                                   
   1.00000000000000     
    40.0000000000000000    0.0000000000000000    0.0000000000000000
     0.0000000000000000   40.0000000000000000    0.0000000000000000
     0.0000000000000000    0.0000000000000000   40.0000000000000000
   C    N    H 
     4     1     9
Selective dynamics
Direct
  0.5146502521138281  0.4710977667201307  0.4951109644755787   T   T   T
  0.5146563670406518  0.5289098819979663  0.4951450426620013   T   T   T
  0.4776222941879211  0.5194154743849090  0.5016729873283203   T   T   T
  0.4776337216600720  0.4805778539981150  0.5017183369415484   T   T   T
  0.5351152288506812  0.4999948753021488  0.5052436234499148   T   T   T
  0.5370270253812973  0.4999785367739592  0.5307624462120616   T   T   T
  0.4694558736250768  0.4708552232035094  0.5260845948424547   T   T   T
  0.4608216861485527  0.4700630002601352  0.4827114319383236   T   T   T
  0.4693490959469860  0.5291952353967286  0.5259828565466117   T   T   T
  0.4608688687926891  0.5298655004120826  0.4825781650442733   T   T   T
  0.5187002340857010  0.5331312580257190  0.4681980594705938   T   T   T
  0.5227133293268831  0.5515707082989759  0.5083696658874882   T   T   T
  0.5186542602665100  0.4669405051652082  0.4681487801592903   T   T   T
  0.5227327625731332  0.4484071800604185  0.5082720450415421   T   T   T
 
  0.00000000E+00  0.00000000E+00  0.00000000E+00
  0.00000000E+00  0.00000000E+00  0.00000000E+00
  0.00000000E+00  0.00000000E+00  0.00000000E+00
  0.00000000E+00  0.00000000E+00  0.00000000E+00
  0.00000000E+00  0.00000000E+00  0.00000000E+00
  0.00000000E+00  0.00000000E+00  0.00000000E+00
  0.00000000E+00  0.00000000E+00  0.00000000E+00
  0.00000000E+00  0.00000000E+00  0.00000000E+00
  0.00000000E+00  0.00000000E+00  0.00000000E+00
  0.00000000E+00  0.00000000E+00  0.00000000E+00
  0.00000000E+00  0.00000000E+00  0.00000000E+00
  0.00000000E+00  0.00000000E+00  0.00000000E+00
  0.00000000E+00  0.00000000E+00  0.00000000E+00
  0.00000000E+00  0.00000000E+00  0.00000000E+00
