C N H                                   
   1.00000000000000     
    40.0000000000000000    0.0000000000000000    0.0000000000000000
     0.0000000000000000   40.0000000000000000    0.0000000000000000
     0.0000000000000000    0.0000000000000000   40.0000000000000000
   C    N    H 
     6     1    15
Selective dynamics
Direct
  0.4749060608065368  0.5011865830481421  0.5214576657678115   T   T   T
  0.4409851263955121  0.4978776741619414  0.5036663110700368   T   T   T
  0.5150523798105155  0.4754542771368708  0.4794976507222228   T   T   T
  0.5138242617132681  0.4427854980540309  0.4986156548455363   T   T   T
  0.5128003072993234  0.5370866115817945  0.4872186900410083   T   T   T
  0.5427846283057030  0.5473356405760125  0.5088639769536359   T   T   T
  0.5013574678744742  0.5041391541110817  0.4969819637820185   T   T   T
  0.4217049256786751  0.4963293344926121  0.5228561538359230   T   T   T
  0.4400859833375270  0.4753273859692185  0.4883904023300074   T   T   T
  0.4361506681209346  0.5196158846095341  0.4879500659559893   T   T   T
  0.4796507286788974  0.4793850019665437  0.5370506618464956   T   T   T
  0.4754103729736018  0.5236220175915904  0.5368878635116507   T   T   T
  0.4883043012471612  0.4345290120581417  0.5034099986353930   T   T   T
  0.5260256680517547  0.4237743866107100  0.4833779584863484   T   T   T
  0.5272551084027107  0.4447271984910978  0.5222792018278292   T   T   T
  0.5008866069812714  0.4736915691279626  0.4559566860592424   T   T   T
  0.5405561858080615  0.4821624368098214  0.4723715180499043   T   T   T
  0.5634052681456961  0.5297852419744720  0.5057740162075758   T   T   T
  0.5358528233207450  0.5485278823950001  0.5351889440552431   T   T   T
  0.5509336197722152  0.5720212926844250  0.5007075130223352   T   T   T
  0.5199082819572827  0.5360790470098373  0.4609284302889645   T   T   T
  0.4921602253180875  0.5545578695391579  0.4905686727047919   T   T   T
 
  0.00000000E+00  0.00000000E+00  0.00000000E+00
  0.00000000E+00  0.00000000E+00  0.00000000E+00
  0.00000000E+00  0.00000000E+00  0.00000000E+00
  0.00000000E+00  0.00000000E+00  0.00000000E+00
  0.00000000E+00  0.00000000E+00  0.00000000E+00
  0.00000000E+00  0.00000000E+00  0.00000000E+00
  0.00000000E+00  0.00000000E+00  0.00000000E+00
  0.00000000E+00  0.00000000E+00  0.00000000E+00
  0.00000000E+00  0.00000000E+00  0.00000000E+00
  0.00000000E+00  0.00000000E+00  0.00000000E+00
  0.00000000E+00  0.00000000E+00  0.00000000E+00
  0.00000000E+00  0.00000000E+00  0.00000000E+00
  0.00000000E+00  0.00000000E+00  0.00000000E+00
  0.00000000E+00  0.00000000E+00  0.00000000E+00
  0.00000000E+00  0.00000000E+00  0.00000000E+00
  0.00000000E+00  0.00000000E+00  0.00000000E+00
  0.00000000E+00  0.00000000E+00  0.00000000E+00
  0.00000000E+00  0.00000000E+00  0.00000000E+00
  0.00000000E+00  0.00000000E+00  0.00000000E+00
  0.00000000E+00  0.00000000E+00  0.00000000E+00
  0.00000000E+00  0.00000000E+00  0.00000000E+00
  0.00000000E+00  0.00000000E+00  0.00000000E+00
