C O H                                   
   1.00000000000000     
    40.0000000000000000    0.0000000000000000    0.0000000000000000
     0.0000000000000000   40.0000000000000000    0.0000000000000000
     0.0000000000000000    0.0000000000000000   40.0000000000000000
   C    O    H 
     4     1     4
Selective dynamics
Direct
  0.4851473725422628  0.4728506537833255  0.5000000000000000   T   T   T
  0.5191470567815033  0.4827006795407339  0.5000000000000000   T   T   T
  0.5191460567814987  0.5173003204592637  0.5000000000000000   T   T   T
  0.4851453725422607  0.5271483462166699  0.5000000000000000   T   T   T
  0.4647243996222771  0.4999990000000025  0.5000000000000000   T   T   T
  0.4729840615730906  0.5514473516881714  0.5000000000000000   T   T   T
  0.5403578092920193  0.5342184698177941  0.4999990000000025   T   T   T
  0.5403598092920142  0.4657845301822057  0.5000000000000000   T   T   T
  0.4729870615730902  0.4485506483118265  0.5000000000000000   T   T   T
 
  0.00000000E+00  0.00000000E+00  0.00000000E+00
  0.00000000E+00  0.00000000E+00  0.00000000E+00
  0.00000000E+00  0.00000000E+00  0.00000000E+00
  0.00000000E+00  0.00000000E+00  0.00000000E+00
  0.00000000E+00  0.00000000E+00  0.00000000E+00
  0.00000000E+00  0.00000000E+00  0.00000000E+00
  0.00000000E+00  0.00000000E+00  0.00000000E+00
  0.00000000E+00  0.00000000E+00  0.00000000E+00
  0.00000000E+00  0.00000000E+00  0.00000000E+00
