C O H                                   
   1.00000000000000     
    40.0000000000000000    0.0000000000000000    0.0000000000000000
     0.0000000000000000   40.0000000000000000    0.0000000000000000
     0.0000000000000000    0.0000000000000000   40.0000000000000000
   C    O    H 
    10     1    12
Selective dynamics
Direct
  0.4721009067210176  0.4904891629201771  0.4992846059246787   T   T   T
  0.4401603982429450  0.5052600369251152  0.5001396920878278   T   T   T
  0.4376247014634060  0.5397447003774758  0.5005942829834211   T   T   T
  0.4665713157338303  0.5603975713671829  0.5001944673594920   T   T   T
  0.4979603968618065  0.5463320106260525  0.4993535228378150   T   T   T
  0.5022359525001008  0.5110571665951866  0.4988750223469580   T   T   T
  0.5341216105448225  0.4950960504416457  0.4978055398089509   T   T   T
  0.5643923193838489  0.5111200046914419  0.5012174423933544   T   T   T
  0.5969594930898694  0.4939540587960565  0.4999849047112122   T   T   T
  0.4493740894599725  0.4346329283979671  0.5003590770500423   T   T   T
  0.4773707694823912  0.4576636471324562  0.4991649779248988   T   T   T
  0.5948608583069088  0.4673984647764797  0.4936018205523851   T   T   T
  0.6136607683973239  0.5066896607816673  0.4821010517926538   T   T   T
  0.6096631504516594  0.4964841415936974  0.5244000892163356   T   T   T
  0.5650699475709189  0.5380627290793143  0.5056635373824889   T   T   T
  0.5343988005453753  0.4679982614782432  0.4945667009617907   T   T   T
  0.5198652461259030  0.5624617438204069  0.4985713983145388   T   T   T
  0.4637044485024546  0.5874761464504701  0.5003596260160563   T   T   T
  0.4129619348915057  0.5513228496446416  0.5013437109098930   T   T   T
  0.4177330906031926  0.4898890041991919  0.5004602558272211   T   T   T
  0.4332765288961724  0.4382340005640089  0.4784374242676961   T   T   T
  0.4351890455959833  0.4384363089330279  0.5235365647849548   T   T   T
  0.4607422266285752  0.4098003504080978  0.4999832845453511   T   T   T
 
  0.00000000E+00  0.00000000E+00  0.00000000E+00
  0.00000000E+00  0.00000000E+00  0.00000000E+00
  0.00000000E+00  0.00000000E+00  0.00000000E+00
  0.00000000E+00  0.00000000E+00  0.00000000E+00
  0.00000000E+00  0.00000000E+00  0.00000000E+00
  0.00000000E+00  0.00000000E+00  0.00000000E+00
  0.00000000E+00  0.00000000E+00  0.00000000E+00
  0.00000000E+00  0.00000000E+00  0.00000000E+00
  0.00000000E+00  0.00000000E+00  0.00000000E+00
  0.00000000E+00  0.00000000E+00  0.00000000E+00
  0.00000000E+00  0.00000000E+00  0.00000000E+00
  0.00000000E+00  0.00000000E+00  0.00000000E+00
  0.00000000E+00  0.00000000E+00  0.00000000E+00
  0.00000000E+00  0.00000000E+00  0.00000000E+00
  0.00000000E+00  0.00000000E+00  0.00000000E+00
  0.00000000E+00  0.00000000E+00  0.00000000E+00
  0.00000000E+00  0.00000000E+00  0.00000000E+00
  0.00000000E+00  0.00000000E+00  0.00000000E+00
  0.00000000E+00  0.00000000E+00  0.00000000E+00
  0.00000000E+00  0.00000000E+00  0.00000000E+00
  0.00000000E+00  0.00000000E+00  0.00000000E+00
  0.00000000E+00  0.00000000E+00  0.00000000E+00
  0.00000000E+00  0.00000000E+00  0.00000000E+00
