C H                                     
   1.00000000000000     
    40.0000000000000000    0.0000000000000000    0.0000000000000000
     0.0000000000000000   40.0000000000000000    0.0000000000000000
     0.0000000000000000    0.0000000000000000   40.0000000000000000
   C    H 
    14    10
Selective dynamics
Direct
  0.6027046413756609  0.5306333381399512  0.5000043044943496   T   T   T
  0.6200568742951051  0.5000028857587744  0.4999938982428889   T   T   T
  0.6027087756216074  0.4693701239935006  0.4999863698419908   T   T   T
  0.5681175497577309  0.4690841202865177  0.4999943462868935   T   T   T
  0.5502195762782105  0.4999985357604450  0.5000036713987319   T   T   T
  0.5681135980739502  0.5309142046498786  0.5000062069111207   T   T   T
  0.5154695317013001  0.4999957304263165  0.5000116032629622   T   T   T
  0.4845307692765443  0.4999945923218525  0.5000130468668427   T   T   T
  0.4497800793697149  0.4999967621581652  0.5000074869765432   T   T   T
  0.4318818161146243  0.4690835964427543  0.5000098579678177   T   T   T
  0.3972903572941883  0.4693693925384114  0.5000077347223629   T   T   T
  0.3799430303884919  0.5000026023149320  0.4999952727718974   T   T   T
  0.3972951542160756  0.5306323570323906  0.4999881825374366   T   T   T
  0.4318864446018675  0.5309137726514744  0.4999958175004829   T   T   T
  0.5541733157051437  0.5542982810446110  0.5000147439948113   T   T   T
  0.4458278383823146  0.5542974624937866  0.4999927306164338   T   T   T
  0.3834521283554487  0.5540969965319755  0.4999818893336386   T   T   T
  0.3526848926833553  0.5000037106755434  0.4999911085556570   T   T   T
  0.3834453760489512  0.4459060629695951  0.5000107924010301   T   T   T
  0.4458210639269518  0.4456984377678125  0.5000189199661618   T   T   T
  0.5541780985948036  0.4456995195543352  0.4999905205022989   T   T   T
  0.6165543050259855  0.4459062993147270  0.4999817428270719   T   T   T
  0.6473154475425539  0.5000041401953420  0.4999918795357481   T   T   T
  0.6165483353694364  0.5540970749769157  0.5000088724848172   T   T   T
 
  0.00000000E+00  0.00000000E+00  0.00000000E+00
  0.00000000E+00  0.00000000E+00  0.00000000E+00
  0.00000000E+00  0.00000000E+00  0.00000000E+00
  0.00000000E+00  0.00000000E+00  0.00000000E+00
  0.00000000E+00  0.00000000E+00  0.00000000E+00
  0.00000000E+00  0.00000000E+00  0.00000000E+00
  0.00000000E+00  0.00000000E+00  0.00000000E+00
  0.00000000E+00  0.00000000E+00  0.00000000E+00
  0.00000000E+00  0.00000000E+00  0.00000000E+00
  0.00000000E+00  0.00000000E+00  0.00000000E+00
  0.00000000E+00  0.00000000E+00  0.00000000E+00
  0.00000000E+00  0.00000000E+00  0.00000000E+00
  0.00000000E+00  0.00000000E+00  0.00000000E+00
  0.00000000E+00  0.00000000E+00  0.00000000E+00
  0.00000000E+00  0.00000000E+00  0.00000000E+00
  0.00000000E+00  0.00000000E+00  0.00000000E+00
  0.00000000E+00  0.00000000E+00  0.00000000E+00
  0.00000000E+00  0.00000000E+00  0.00000000E+00
  0.00000000E+00  0.00000000E+00  0.00000000E+00
  0.00000000E+00  0.00000000E+00  0.00000000E+00
  0.00000000E+00  0.00000000E+00  0.00000000E+00
  0.00000000E+00  0.00000000E+00  0.00000000E+00
  0.00000000E+00  0.00000000E+00  0.00000000E+00
  0.00000000E+00  0.00000000E+00  0.00000000E+00
