C H                                     
   1.00000000000000     
    40.0000000000000000    0.0000000000000000    0.0000000000000000
     0.0000000000000000   40.0000000000000000    0.0000000000000000
     0.0000000000000000    0.0000000000000000   40.0000000000000000
   C    H 
    12    14
Selective dynamics
Direct
  0.5205371568983992  0.4856716683042492  0.4964779291346559   T   T   T
  0.5478967218221058  0.4638058517438139  0.5005292341582290   T   T   T
  0.5805774686666965  0.4754744177761836  0.5037615201522243   T   T   T
  0.5868759524808951  0.5098722232055692  0.5020859035398004   T   T   T
  0.5602713898016489  0.5319200259728660  0.4977527447792198   T   T   T
  0.5268625195904590  0.5207707264747583  0.4956647128522889   T   T   T
  0.5008242313412410  0.5466320146180124  0.4933193640418878   T   T   T
  0.4695420269748354  0.5455284530418325  0.5057732163795023   T   T   T
  0.4446598066467615  0.5733056759432031  0.5033443976665168   T   T   T
  0.4867808626818118  0.4719711884873377  0.4914081165473121   T   T   T
  0.4745873561600504  0.4437937918381323  0.5051891040079468   T   T   T
  0.4405045469850890  0.4298836072522363  0.4986374432130845   T   T   T
  0.4216948176754869  0.5647959196724699  0.4906956853399365   T   T   T
  0.4368317551281820  0.5817639892351210  0.5283801102570322   T   T   T
  0.4546323660657805  0.5948777707668071  0.4895847016618546   T   T   T
  0.4613051050927766  0.5232028844664569  0.5192535378022640   T   T   T
  0.5089634279225521  0.5699590147453151  0.4814100376118802   T   T   T
  0.5650973676457269  0.5587846674406194  0.4965450511947793   T   T   T
  0.6123733030817817  0.5193794937553591  0.5039821904086352   T   T   T
  0.6011132805641211  0.4577753449974935  0.5067972171084989   T   T   T
  0.5432306119159946  0.4369114809505632  0.5001967423186642   T   T   T
  0.4263932535445960  0.4453655666466858  0.4808764656505957   T   T   T
  0.4420308455304038  0.4042980287405200  0.4885021329923447   T   T   T
  0.4259318683120483  0.4279509207892644  0.5219484870420033   T   T   T
  0.4900872710530209  0.4298725419594405  0.5229872109970870   T   T   T
  0.4703956864175538  0.4864317311756849  0.4748957431417580   T   T   T
 
  0.00000000E+00  0.00000000E+00  0.00000000E+00
  0.00000000E+00  0.00000000E+00  0.00000000E+00
  0.00000000E+00  0.00000000E+00  0.00000000E+00
  0.00000000E+00  0.00000000E+00  0.00000000E+00
  0.00000000E+00  0.00000000E+00  0.00000000E+00
  0.00000000E+00  0.00000000E+00  0.00000000E+00
  0.00000000E+00  0.00000000E+00  0.00000000E+00
  0.00000000E+00  0.00000000E+00  0.00000000E+00
  0.00000000E+00  0.00000000E+00  0.00000000E+00
  0.00000000E+00  0.00000000E+00  0.00000000E+00
  0.00000000E+00  0.00000000E+00  0.00000000E+00
  0.00000000E+00  0.00000000E+00  0.00000000E+00
  0.00000000E+00  0.00000000E+00  0.00000000E+00
  0.00000000E+00  0.00000000E+00  0.00000000E+00
  0.00000000E+00  0.00000000E+00  0.00000000E+00
  0.00000000E+00  0.00000000E+00  0.00000000E+00
  0.00000000E+00  0.00000000E+00  0.00000000E+00
  0.00000000E+00  0.00000000E+00  0.00000000E+00
  0.00000000E+00  0.00000000E+00  0.00000000E+00
  0.00000000E+00  0.00000000E+00  0.00000000E+00
  0.00000000E+00  0.00000000E+00  0.00000000E+00
  0.00000000E+00  0.00000000E+00  0.00000000E+00
  0.00000000E+00  0.00000000E+00  0.00000000E+00
  0.00000000E+00  0.00000000E+00  0.00000000E+00
  0.00000000E+00  0.00000000E+00  0.00000000E+00
  0.00000000E+00  0.00000000E+00  0.00000000E+00
