!r2SCANh freq aug-cc-pVTZ d3 TightSCF SlowConv RIJCOSX defgrid2

%pal
nprocs 12
end

%scf
MaxIter 1500
end

%maxcore 5000

!CPCM
%cpcm smd true
SMDsolvent "MeCN"
surfacetype gepol_ses
rsolv 2.19
end 

* xyz 0 1
C           2.39303218422259     -0.83801680496958      0.66449664026850
C           1.26994227546464     -0.39204875017666     -0.03612101746583
C           1.38140205078485      0.77477595333735     -0.79714020789237
C           2.58368861782968      1.46071328465902     -0.87269786805436
C           3.69493333630937      1.00278220671020     -0.17635760501201
C           3.59381649105927     -0.14789150325697      0.59464158590189
H           4.44970135094662     -0.50399240683227      1.15244959775291
H           4.63042141785125      1.54333740438399     -0.22800548892324
H           2.65280470967855      2.35575765206393     -1.47644219234774
H           0.52225510474896      1.13830147597441     -1.34493045526765
C          -0.00000760643737     -1.15135405484078      0.00023588052031
C           0.00004481427364     -2.48982884270035      0.00018251782105
H          -0.92116345250492     -3.05214644585745      0.06615986493306
H           0.92129638634075     -3.05206592950224     -0.06586847363833
C          -1.27002353440194     -0.39216716184482      0.03649981401211
C          -2.39288633121781     -0.83796038938601     -0.66457531003831
C          -3.59360568384781     -0.14766666370430     -0.59518995765781
C          -3.69489920323589      1.00297787945243      0.17582342750021
C          -2.58392869303192      1.46063986803482      0.87277833160925
C          -1.38173865801673      0.77450874676271      0.79767498152260
H          -0.52286670834046      1.13771380899483      1.34608777880034
H          -2.65316712628601      2.35564233702626      1.47656328644676
H          -4.63031329008910      1.54370610543397      0.22701857117753
H          -4.44928282866343     -0.50358752628736     -1.15342232951177
H          -2.31543814957870     -1.72240466795561     -1.28271601928101
H           2.31575242614193     -1.72251957551950      1.28257814682389
*
