!PBE0 def2-SV(p) Opt Freq d3 TightSCF SlowConv RIJCOSX defgrid2
 
%pal
nprocs 4
end
 
%scf
MaxIter 1500
end
 
%maxcore 3000
 

 
* xyz 1 2
C    -0.6718362    1.2258012    0.0409532 
C     0.6937719    1.2153906    0.0164854 
C     1.4156635    0.0010296    0.0120867 
C     2.8882571    0.0003097   -0.0142558 
H     3.2993160    0.9042375    0.4309424 
H     3.2258882   -0.0240509   -1.0564022 
H     3.2975282   -0.8855342    0.4681530 
C     0.6944643   -1.2140190    0.0153032 
C    -0.6709956   -1.2254534    0.0397844 
C    -1.4000890   -0.0000629    0.0594872 
N    -2.7273412   -0.0006032    0.0908146 
H    -3.2471990   -0.8698624    0.1052578 
H    -3.2478338    0.8688396    0.1044638 
H    -1.2117982   -2.1593306    0.0465767 
H     1.2408556   -2.1445842    0.0017445 
H     1.2393459    2.1464360    0.0039348 
H    -1.2132414    2.1593318    0.0486922
*
