C N O H                                 
   1.00000000000000     
    40.0000000000000000    0.0000000000000000    0.0000000000000000
     0.0000000000000000   40.0000000000000000    0.0000000000000000
     0.0000000000000000    0.0000000000000000   40.0000000000000000
   C    N    O    H 
    10     1     1    17
Selective dynamics
Direct
  0.4706350960443654  0.4689491148154227  0.5003989188200663   T   T   T
  0.4905211479557900  0.4999204826504033  0.5082222370561866   T   T   T
  0.4748621444079382  0.5311731888854395  0.5086112580541250   T   T   T
  0.4393940248840631  0.5363761627070754  0.4993812939108648   T   T   T
  0.4224376893000819  0.5057729199711566  0.4842568933486510   T   T   T
  0.4329600092120421  0.4745907081338884  0.5033176471095734   T   T   T
  0.5459949900627977  0.5243628450989867  0.5229529440139399   T   T   T
  0.5701332948142692  0.5297241594254818  0.4937496620681511   T   T   T
  0.5664860093886177  0.4730389665727637  0.4793281419858993   T   T   T
  0.5422565005732233  0.4662353632889262  0.5083261633398238   T   T   T
  0.5233391339773229  0.4968742261756246  0.5146445675853561   T   T   T
  0.5884053336499185  0.4999212927942455  0.4870980523941663   T   T   T
  0.4261649091916118  0.4772147381167653  0.5297191770744846   T   T   T
  0.4201290743281922  0.4524334846334556  0.4938637813250450   T   T   T
  0.4296084612964524  0.5032701329382661  0.4579408942681969   T   T   T
  0.3953509576438741  0.5089839027236746  0.4849853802438686   T   T   T
  0.4261888608468241  0.5443547930899049  0.5221921083835126   T   T   T
  0.4379934865646524  0.5581452321379710  0.4827807635501711   T   T   T
  0.4887180277284750  0.5532619711467166  0.5156675172229893   T   T   T
  0.5325573874406234  0.5471762366282774  0.5286217063405357   T   T   T
  0.5882034665897187  0.5489656678865692  0.5003929388504279   T   T   T
  0.5561521755392002  0.5375213618887977  0.4714569990012180   T   T   T
  0.5522058561111005  0.4786936544431326  0.4565914266733234   T   T   T
  0.5563669587661941  0.4602491645569777  0.5309000218791968   T   T   T
  0.5258908208771761  0.4455823485110566  0.5020474516163623   T   T   T
  0.5818736812286684  0.4509679452210757  0.4752081319995516   T   T   T
  0.5600039023956208  0.5166478190465437  0.5450578001696503   T   T   T
  0.4768383441493191  0.4606782455970960  0.4750138363549815   T   T   T
  0.4783302550318547  0.4489148709143016  0.5172752853597019   T   T   T
 
  0.00000000E+00  0.00000000E+00  0.00000000E+00
  0.00000000E+00  0.00000000E+00  0.00000000E+00
  0.00000000E+00  0.00000000E+00  0.00000000E+00
  0.00000000E+00  0.00000000E+00  0.00000000E+00
  0.00000000E+00  0.00000000E+00  0.00000000E+00
  0.00000000E+00  0.00000000E+00  0.00000000E+00
  0.00000000E+00  0.00000000E+00  0.00000000E+00
  0.00000000E+00  0.00000000E+00  0.00000000E+00
  0.00000000E+00  0.00000000E+00  0.00000000E+00
  0.00000000E+00  0.00000000E+00  0.00000000E+00
  0.00000000E+00  0.00000000E+00  0.00000000E+00
  0.00000000E+00  0.00000000E+00  0.00000000E+00
  0.00000000E+00  0.00000000E+00  0.00000000E+00
  0.00000000E+00  0.00000000E+00  0.00000000E+00
  0.00000000E+00  0.00000000E+00  0.00000000E+00
  0.00000000E+00  0.00000000E+00  0.00000000E+00
  0.00000000E+00  0.00000000E+00  0.00000000E+00
  0.00000000E+00  0.00000000E+00  0.00000000E+00
  0.00000000E+00  0.00000000E+00  0.00000000E+00
  0.00000000E+00  0.00000000E+00  0.00000000E+00
  0.00000000E+00  0.00000000E+00  0.00000000E+00
  0.00000000E+00  0.00000000E+00  0.00000000E+00
  0.00000000E+00  0.00000000E+00  0.00000000E+00
  0.00000000E+00  0.00000000E+00  0.00000000E+00
  0.00000000E+00  0.00000000E+00  0.00000000E+00
  0.00000000E+00  0.00000000E+00  0.00000000E+00
  0.00000000E+00  0.00000000E+00  0.00000000E+00
  0.00000000E+00  0.00000000E+00  0.00000000E+00
  0.00000000E+00  0.00000000E+00  0.00000000E+00
