C O H                                   
   1.00000000000000     
    40.0000000000000000    0.0000000000000000    0.0000000000000000
     0.0000000000000000   40.0000000000000000    0.0000000000000000
     0.0000000000000000    0.0000000000000000   40.0000000000000000
   C    O    H 
    13     1    10
Selective dynamics
Direct
  0.4379477440600574  0.5309807181153960  0.5036813629177349   T   T   T
  0.4068634883076230  0.5155172903892815  0.5009404868957408   T   T   T
  0.4681439202643635  0.5136968524731074  0.4961377558969214   T   T   T
  0.4647737305643443  0.4802705710951282  0.4844207381005720   T   T   T
  0.4336182592934117  0.4650511016172465  0.4812866185131494   T   T   T
  0.4041936375096678  0.4823062246583261  0.4898597207150204   T   T   T
  0.5001290883367332  0.5317031736629054  0.4982587475079840   T   T   T
  0.5319756573253457  0.5137564688424130  0.5023356969431371   T   T   T
  0.5623202835420601  0.5299068970979249  0.4930781624150630   T   T   T
  0.5932752806954400  0.5145889641458627  0.4975229834340131   T   T   T
  0.5956547163484088  0.4827217653881210  0.5120861780669350   T   T   T
  0.5660825430209805  0.4666949774511590  0.5223650457832193   T   T   T
  0.5350581950919233  0.4817378615293714  0.5175301855485095   T   T   T
  0.5002735036738984  0.5640210843386366  0.4965024081720765   T   T   T
  0.4321254052546332  0.4395138749332733  0.4716800201406169   T   T   T
  0.3798322983955577  0.4702472520349096  0.4876354793054854   T   T   T
  0.4397792128369412  0.5568895252270764  0.5120126355807233   T   T   T
  0.3842975873468941  0.5294607948420189  0.5075411506842326   T   T   T
  0.4869896974441067  0.4664903405828099  0.4766788559046193   T   T   T
  0.5127238707505806  0.4690159770309049  0.5266235130694363   T   T   T
  0.6199069073908554  0.4707646273689726  0.5156263497120990   T   T   T
  0.5673600611528885  0.4423127281792884  0.5346327369149426   T   T   T
  0.5607107301522851  0.5548007485966858  0.4820427613801179   T   T   T
  0.6159661812409949  0.5275521803991537  0.4895204063976645   T   T   T
 
  0.00000000E+00  0.00000000E+00  0.00000000E+00
  0.00000000E+00  0.00000000E+00  0.00000000E+00
  0.00000000E+00  0.00000000E+00  0.00000000E+00
  0.00000000E+00  0.00000000E+00  0.00000000E+00
  0.00000000E+00  0.00000000E+00  0.00000000E+00
  0.00000000E+00  0.00000000E+00  0.00000000E+00
  0.00000000E+00  0.00000000E+00  0.00000000E+00
  0.00000000E+00  0.00000000E+00  0.00000000E+00
  0.00000000E+00  0.00000000E+00  0.00000000E+00
  0.00000000E+00  0.00000000E+00  0.00000000E+00
  0.00000000E+00  0.00000000E+00  0.00000000E+00
  0.00000000E+00  0.00000000E+00  0.00000000E+00
  0.00000000E+00  0.00000000E+00  0.00000000E+00
  0.00000000E+00  0.00000000E+00  0.00000000E+00
  0.00000000E+00  0.00000000E+00  0.00000000E+00
  0.00000000E+00  0.00000000E+00  0.00000000E+00
  0.00000000E+00  0.00000000E+00  0.00000000E+00
  0.00000000E+00  0.00000000E+00  0.00000000E+00
  0.00000000E+00  0.00000000E+00  0.00000000E+00
  0.00000000E+00  0.00000000E+00  0.00000000E+00
  0.00000000E+00  0.00000000E+00  0.00000000E+00
  0.00000000E+00  0.00000000E+00  0.00000000E+00
  0.00000000E+00  0.00000000E+00  0.00000000E+00
  0.00000000E+00  0.00000000E+00  0.00000000E+00
