C N H                                   
   1.00000000000000     
    40.0000000000000000    0.0000000000000000    0.0000000000000000
     0.0000000000000000   40.0000000000000000    0.0000000000000000
     0.0000000000000000    0.0000000000000000   40.0000000000000000
   C    N    H 
     3     2     4
Selective dynamics
Direct
  0.5039335403643598  0.5252757303182596  0.5000009999999975   T   T   T
  0.5254155259330759  0.4957420368062355  0.5000000000000000   T   T   T
  0.5030026428055614  0.4687697919973718  0.5000009999999975   T   T   T
  0.4715536764800491  0.4791871741778915  0.4999990000000025   T   T   T
  0.4733414892571498  0.5141102706560731  0.4999990000000025   T   T   T
  0.4517076101746951  0.5272743447539990  0.4999990000000025   T   T   T
  0.5083877040206792  0.4423668764642129  0.5000009999999975   T   T   T
  0.5523616272097540  0.4957721284847439  0.5000000000000000   T   T   T
  0.5102951837546641  0.5515006463412016  0.5000009999999975   T   T   T
 
  0.00000000E+00  0.00000000E+00  0.00000000E+00
  0.00000000E+00  0.00000000E+00  0.00000000E+00
  0.00000000E+00  0.00000000E+00  0.00000000E+00
  0.00000000E+00  0.00000000E+00  0.00000000E+00
  0.00000000E+00  0.00000000E+00  0.00000000E+00
  0.00000000E+00  0.00000000E+00  0.00000000E+00
  0.00000000E+00  0.00000000E+00  0.00000000E+00
  0.00000000E+00  0.00000000E+00  0.00000000E+00
  0.00000000E+00  0.00000000E+00  0.00000000E+00
