C N O H                                 
   1.00000000000000     
    40.0000000000000000    0.0000000000000000    0.0000000000000000
     0.0000000000000000   40.0000000000000000    0.0000000000000000
     0.0000000000000000    0.0000000000000000   40.0000000000000000
   C    N    O    H 
     8     1     3     7
Selective dynamics
Direct
  0.5013427686010214  0.4633824878640139  0.4999807382206107   T   T   T
  0.4666187115954025  0.4633393011796219  0.5000102575714543   T   T   T
  0.4499748670706291  0.4940750457861711  0.5000505765854234   T   T   T
  0.4669851594799368  0.5245530694157705  0.5000515193828583   T   T   T
  0.5018176014621890  0.5241439841618702  0.5000172029367608   T   T   T
  0.5192763332015050  0.4936292138504016  0.4999817687193017   T   T   T
  0.5568636330168978  0.4920601618274773  0.4999504404385375   T   T   T
  0.5764332466123433  0.5242073361283767  0.4999359216599080   T   T   T
  0.4131494466876687  0.4942721267826599  0.5000707318266718   T   T   T
  0.5710610931489319  0.4646253737316659  0.4999433647046653   T   T   T
  0.3986261497996361  0.5217400560821160  0.5000977060514744   T   T   T
  0.3983829719727152  0.4669350701740885  0.5000586896439910   T   T   T
  0.5702208434772026  0.5393070352258157  0.5220717231891517   T   T   T
  0.6032002303816628  0.5185413872330956  0.4998731134117924   T   T   T
  0.5701246562008299  0.5393617783206535  0.4778651068188986   T   T   T
  0.5151861456506552  0.5478690649824630  0.5000159844695593   T   T   T
  0.4531278510101885  0.5479624717134722  0.5000737123183436   T   T   T
  0.4524699516193459  0.4401073226979952  0.4999981143704413   T   T   T
  0.5151373390112483  0.4398917128422682  0.4999523276801723   T   T   T
 
  0.00000000E+00  0.00000000E+00  0.00000000E+00
  0.00000000E+00  0.00000000E+00  0.00000000E+00
  0.00000000E+00  0.00000000E+00  0.00000000E+00
  0.00000000E+00  0.00000000E+00  0.00000000E+00
  0.00000000E+00  0.00000000E+00  0.00000000E+00
  0.00000000E+00  0.00000000E+00  0.00000000E+00
  0.00000000E+00  0.00000000E+00  0.00000000E+00
  0.00000000E+00  0.00000000E+00  0.00000000E+00
  0.00000000E+00  0.00000000E+00  0.00000000E+00
  0.00000000E+00  0.00000000E+00  0.00000000E+00
  0.00000000E+00  0.00000000E+00  0.00000000E+00
  0.00000000E+00  0.00000000E+00  0.00000000E+00
  0.00000000E+00  0.00000000E+00  0.00000000E+00
  0.00000000E+00  0.00000000E+00  0.00000000E+00
  0.00000000E+00  0.00000000E+00  0.00000000E+00
  0.00000000E+00  0.00000000E+00  0.00000000E+00
  0.00000000E+00  0.00000000E+00  0.00000000E+00
  0.00000000E+00  0.00000000E+00  0.00000000E+00
  0.00000000E+00  0.00000000E+00  0.00000000E+00
