C N H                                   
   1.00000000000000     
    40.0000000000000000    0.0000000000000000    0.0000000000000000
     0.0000000000000000   40.0000000000000000    0.0000000000000000
     0.0000000000000000    0.0000000000000000   40.0000000000000000
   C    N    H 
     5     1    11
Selective dynamics
Direct
  0.4660182709018439  0.4999854884304369  0.5032223015356039   T   T   T
  0.4847145422098858  0.4684332754473833  0.4927971936011487   T   T   T
  0.5213864343953358  0.4692734735289722  0.5071406691390099   T   T   T
  0.5213488658863884  0.5307528809101132  0.5071259419350465   T   T   T
  0.4846880979963724  0.5315503460708089  0.4927857797965450   T   T   T
  0.5362990287005772  0.5000107829361384  0.4970049699998424   T   T   T
  0.5526108941672268  0.5000178898114856  0.4773040854035377   T   T   T
  0.4730358604188655  0.5544297516217401  0.5025149174214498   T   T   T
  0.4861936308902731  0.5335718274724041  0.4654215033025108   T   T   T
  0.5360910937171758  0.5518583455447870  0.4978939714345310   T   T   T
  0.5195528086049657  0.5313366270178342  0.5345885756643561   T   T   T
  0.5361301153551831  0.4481816337488323  0.4979111069765944   T   T   T
  0.5195805053494552  0.4686884438873567  0.5345966327351932   T   T   T
  0.4730814329892199  0.4455426237278933  0.5025278137961503   T   T   T
  0.4862255363443720  0.4664095719037279  0.4654319285382071   T   T   T
  0.4411596829205882  0.4999718244094941  0.4912809871908812   T   T   T
  0.4618841991522690  0.4999862135305965  0.5304516215293780   T   T   T
 
  0.00000000E+00  0.00000000E+00  0.00000000E+00
  0.00000000E+00  0.00000000E+00  0.00000000E+00
  0.00000000E+00  0.00000000E+00  0.00000000E+00
  0.00000000E+00  0.00000000E+00  0.00000000E+00
  0.00000000E+00  0.00000000E+00  0.00000000E+00
  0.00000000E+00  0.00000000E+00  0.00000000E+00
  0.00000000E+00  0.00000000E+00  0.00000000E+00
  0.00000000E+00  0.00000000E+00  0.00000000E+00
  0.00000000E+00  0.00000000E+00  0.00000000E+00
  0.00000000E+00  0.00000000E+00  0.00000000E+00
  0.00000000E+00  0.00000000E+00  0.00000000E+00
  0.00000000E+00  0.00000000E+00  0.00000000E+00
  0.00000000E+00  0.00000000E+00  0.00000000E+00
  0.00000000E+00  0.00000000E+00  0.00000000E+00
  0.00000000E+00  0.00000000E+00  0.00000000E+00
  0.00000000E+00  0.00000000E+00  0.00000000E+00
  0.00000000E+00  0.00000000E+00  0.00000000E+00
