C H                                     
   1.00000000000000     
    40.0000000000000000    0.0000000000000000    0.0000000000000000
     0.0000000000000000   40.0000000000000000    0.0000000000000000
     0.0000000000000000    0.0000000000000000   40.0000000000000000
   C    H 
    10    12
Selective dynamics
Direct
  0.5267532920343416  0.4686947663768007  0.5000036148447261   T   T   T
  0.5359488428484533  0.5024939251940065  0.5000015902031227   T   T   T
  0.5102710915386448  0.5263508399876278  0.5000014218657857   T   T   T
  0.4765263220349504  0.5176325097342789  0.5000000540116719   T   T   T
  0.4676985683234769  0.4835879609638218  0.5000006960397084   T   T   T
  0.4932586637559660  0.4597250285787347  0.5000028886548508   T   T   T
  0.4317119884435933  0.4729797991347999  0.5000002619622975   T   T   T
  0.4500479276750062  0.5442327571800704  0.4999986950120757   T   T   T
  0.5707299449212833  0.5139434746738543  0.5000035315660636   T   T   T
  0.5983400882413449  0.4950574135929922  0.4999932008781021   T   T   T
  0.4866036268289468  0.4334041319590982  0.5000056799519109   T   T   T
  0.4295164037449561  0.4458022694377129  0.5000024068948662   T   T   T
  0.4184762033152026  0.4826290779793276  0.4780759725868147   T   T   T
  0.4184737243865468  0.4826327328115503  0.5219217386101253   T   T   T
  0.4338207473613828  0.5420843401399972  0.5219292477650477   T   T   T
  0.4338187660255671  0.5420795395971507  0.4780701568341149   T   T   T
  0.4611801893024284  0.5691199998404508  0.4999956457140862   T   T   T
  0.5169734267724195  0.5526864362880133  0.5000015145052079   T   T   T
  0.5976080151947971  0.4679443028392422  0.4999789663397719   T   T   T
  0.6228277750240678  0.5066262065560351  0.4999933104810324   T   T   T
  0.5737099548289101  0.5409907131484945  0.5000136077992284   T   T   T
  0.5457034373977231  0.4493027739859514  0.5000057974793958   T   T   T
 
  0.00000000E+00  0.00000000E+00  0.00000000E+00
  0.00000000E+00  0.00000000E+00  0.00000000E+00
  0.00000000E+00  0.00000000E+00  0.00000000E+00
  0.00000000E+00  0.00000000E+00  0.00000000E+00
  0.00000000E+00  0.00000000E+00  0.00000000E+00
  0.00000000E+00  0.00000000E+00  0.00000000E+00
  0.00000000E+00  0.00000000E+00  0.00000000E+00
  0.00000000E+00  0.00000000E+00  0.00000000E+00
  0.00000000E+00  0.00000000E+00  0.00000000E+00
  0.00000000E+00  0.00000000E+00  0.00000000E+00
  0.00000000E+00  0.00000000E+00  0.00000000E+00
  0.00000000E+00  0.00000000E+00  0.00000000E+00
  0.00000000E+00  0.00000000E+00  0.00000000E+00
  0.00000000E+00  0.00000000E+00  0.00000000E+00
  0.00000000E+00  0.00000000E+00  0.00000000E+00
  0.00000000E+00  0.00000000E+00  0.00000000E+00
  0.00000000E+00  0.00000000E+00  0.00000000E+00
  0.00000000E+00  0.00000000E+00  0.00000000E+00
  0.00000000E+00  0.00000000E+00  0.00000000E+00
  0.00000000E+00  0.00000000E+00  0.00000000E+00
  0.00000000E+00  0.00000000E+00  0.00000000E+00
  0.00000000E+00  0.00000000E+00  0.00000000E+00
