C F O H                                 
   1.00000000000000     
    40.0000000000000000    0.0000000000000000    0.0000000000000000
     0.0000000000000000   40.0000000000000000    0.0000000000000000
     0.0000000000000000    0.0000000000000000   40.0000000000000000
   C    F    O    H 
     8     1     1     7
Selective dynamics
Direct
  0.5100430865192772  0.5233501932091318  0.5000058445460527   T   T   T
  0.5449211372218075  0.5241055915796747  0.5000102169178490   T   T   T
  0.5618932071098428  0.4937511263951248  0.5000064562765318   T   T   T
  0.5457492515054253  0.4628808056462754  0.5000009264407950   T   T   T
  0.5109681988970184  0.4626889149241721  0.4999982876148385   T   T   T
  0.4926703047171873  0.4927503699332642  0.5000002320429029   T   T   T
  0.4553733202788174  0.4911165525685521  0.4999943861529519   T   T   T
  0.4357392012558563  0.5233395775160831  0.4999923434891868   T   T   T
  0.5961113336174583  0.4941865333273261  0.5000066351422991   T   T   T
  0.4408347291206747  0.4637602995330640  0.4999955676170937   T   T   T
  0.4418926289147852  0.5385032315576664  0.5221055859362226   T   T   T
  0.4419008114872071  0.5385084173898029  0.4778860112017538   T   T   T
  0.4089705154929355  0.5176176679977587  0.4999881214317637   T   T   T
  0.4973854110682076  0.4390598523373542  0.4999935962693224   T   T   T
  0.5602652667319221  0.4398321573037497  0.4999990465353931   T   T   T
  0.5587688497726524  0.5475572696868389  0.5000131166046107   T   T   T
  0.4965127462889111  0.5469914390941819  0.5000046257804441   T   T   T
 
  0.00000000E+00  0.00000000E+00  0.00000000E+00
  0.00000000E+00  0.00000000E+00  0.00000000E+00
  0.00000000E+00  0.00000000E+00  0.00000000E+00
  0.00000000E+00  0.00000000E+00  0.00000000E+00
  0.00000000E+00  0.00000000E+00  0.00000000E+00
  0.00000000E+00  0.00000000E+00  0.00000000E+00
  0.00000000E+00  0.00000000E+00  0.00000000E+00
  0.00000000E+00  0.00000000E+00  0.00000000E+00
  0.00000000E+00  0.00000000E+00  0.00000000E+00
  0.00000000E+00  0.00000000E+00  0.00000000E+00
  0.00000000E+00  0.00000000E+00  0.00000000E+00
  0.00000000E+00  0.00000000E+00  0.00000000E+00
  0.00000000E+00  0.00000000E+00  0.00000000E+00
  0.00000000E+00  0.00000000E+00  0.00000000E+00
  0.00000000E+00  0.00000000E+00  0.00000000E+00
  0.00000000E+00  0.00000000E+00  0.00000000E+00
  0.00000000E+00  0.00000000E+00  0.00000000E+00
