C N H                                   
   1.00000000000000     
    40.0000000000000000    0.0000000000000000    0.0000000000000000
     0.0000000000000000   40.0000000000000000    0.0000000000000000
     0.0000000000000000    0.0000000000000000   40.0000000000000000
   C    N    H 
    10     1    17
Selective dynamics
Direct
  0.5273191087900440  0.4690706535032282  0.5015144473411313   T   T   T
  0.5096492026320126  0.5024253044030977  0.5010476156238935   T   T   T
  0.5268367596956040  0.5315949740090432  0.5002739058579603   T   T   T
  0.5643354150155545  0.5336607239918044  0.4995472827156579   T   T   T
  0.5806030008607747  0.5003310262248558  0.4905638129257580   T   T   T
  0.5643001920831394  0.4721873984100778  0.5103996330808724   T   T   T
  0.4547768093096789  0.5309742377216774  0.5020338648365852   T   T   T
  0.4192590664035243  0.5176538595351707  0.5065202806508897   T   T   T
  0.4207272721067022  0.4834473671003744  0.4894741229904385   T   T   T
  0.4553409638230744  0.4705231159221481  0.4992134323101932   T   T   T
  0.4752689791717574  0.5010024230347929  0.5016040187649491   T   T   T
  0.5768887596338930  0.4483330769347135  0.5058470985101894   T   T   T
  0.5667513232387722  0.4775543443646087  0.5371796585612272   T   T   T
  0.6075150829812055  0.5012393150401342  0.4953917733796479   T   T   T
  0.5773431695919091  0.4954590896763804  0.4637673847697805   T   T   T
  0.5722107477344295  0.5528915861467972  0.4816576194265019   T   T   T
  0.5740360500873211  0.5420247581921679  0.5239408765899488   T   T   T
  0.5132916380495681  0.5550898589538606  0.5003133972834708   T   T   T
  0.4654901057108071  0.4532595536906894  0.4806128873611185   T   T   T
  0.4543063273550712  0.4571580257264249  0.5232627458767238   T   T   T
  0.4007464870887283  0.4665731779435681  0.4972182734623299   T   T   T
  0.4193043891409374  0.4864703990796573  0.4623202700664312   T   T   T
  0.4003938466190293  0.5342332473835898  0.4959079549340579   T   T   T
  0.4137805240899527  0.5145727740302777  0.5331503702826678   T   T   T
  0.4624210355289033  0.5476121818607789  0.5224329500734760   T   T   T
  0.4575470624671354  0.5451296568947385  0.4785581291492476   T   T   T
  0.5148562852182663  0.4524231342644890  0.5193139376485520   T   T   T
  0.5247003955721909  0.4571067359608758  0.4769332555263260   T   T   T
 
  0.00000000E+00  0.00000000E+00  0.00000000E+00
  0.00000000E+00  0.00000000E+00  0.00000000E+00
  0.00000000E+00  0.00000000E+00  0.00000000E+00
  0.00000000E+00  0.00000000E+00  0.00000000E+00
  0.00000000E+00  0.00000000E+00  0.00000000E+00
  0.00000000E+00  0.00000000E+00  0.00000000E+00
  0.00000000E+00  0.00000000E+00  0.00000000E+00
  0.00000000E+00  0.00000000E+00  0.00000000E+00
  0.00000000E+00  0.00000000E+00  0.00000000E+00
  0.00000000E+00  0.00000000E+00  0.00000000E+00
  0.00000000E+00  0.00000000E+00  0.00000000E+00
  0.00000000E+00  0.00000000E+00  0.00000000E+00
  0.00000000E+00  0.00000000E+00  0.00000000E+00
  0.00000000E+00  0.00000000E+00  0.00000000E+00
  0.00000000E+00  0.00000000E+00  0.00000000E+00
  0.00000000E+00  0.00000000E+00  0.00000000E+00
  0.00000000E+00  0.00000000E+00  0.00000000E+00
  0.00000000E+00  0.00000000E+00  0.00000000E+00
  0.00000000E+00  0.00000000E+00  0.00000000E+00
  0.00000000E+00  0.00000000E+00  0.00000000E+00
  0.00000000E+00  0.00000000E+00  0.00000000E+00
  0.00000000E+00  0.00000000E+00  0.00000000E+00
  0.00000000E+00  0.00000000E+00  0.00000000E+00
  0.00000000E+00  0.00000000E+00  0.00000000E+00
  0.00000000E+00  0.00000000E+00  0.00000000E+00
  0.00000000E+00  0.00000000E+00  0.00000000E+00
  0.00000000E+00  0.00000000E+00  0.00000000E+00
  0.00000000E+00  0.00000000E+00  0.00000000E+00
