C N O H                                 
   1.00000000000000     
    40.0000000000000000    0.0000000000000000    0.0000000000000000
     0.0000000000000000   40.0000000000000000    0.0000000000000000
     0.0000000000000000    0.0000000000000000   40.0000000000000000
   C    N    O    H 
     7     1     1     9
Selective dynamics
Direct
  0.5454775038711190  0.5241814469159181  0.4998735936894860   T   T   T
  0.5165744932779717  0.5429457146152927  0.5007172644342077   T   T   T
  0.4851210293571953  0.5273345908629565  0.5009455804613552   T   T   T
  0.4827237968559288  0.4916571266305567  0.5006542703520154   T   T   T
  0.5114520046573858  0.4722636020894981  0.4998781013924898   T   T   T
  0.5430769250367931  0.4881455350502932  0.4992808357224447   T   T   T
  0.4223822939163853  0.4939448258680059  0.5008957194010435   T   T   T
  0.5712688630514080  0.4702402761243079  0.4979649317235157   T   T   T
  0.4533014336353176  0.4751553726415949  0.5011037280658286   T   T   T
  0.5708057629588055  0.4447989492959152  0.4972083871955419   T   T   T
  0.5940254357873442  0.4816184325479043  0.4973474987434372   T   T   T
  0.5095816012947409  0.4450989556754053  0.4995708457784005   T   T   T
  0.4026398880280269  0.4750437273728068  0.5008320390664522   T   T   T
  0.4205919000647214  0.5093805360065673  0.4782657338689944   T   T   T
  0.4202971187310354  0.5095380403884278  0.5233950049867317   T   T   T
  0.4626582869232223  0.5426577799293923  0.5013299224285532   T   T   T
  0.5179516381494835  0.5701286687962792  0.5011371909833713   T   T   T
  0.5700710244031271  0.5358654191888661  0.4995983517061546   T   T   T
 
  0.00000000E+00  0.00000000E+00  0.00000000E+00
  0.00000000E+00  0.00000000E+00  0.00000000E+00
  0.00000000E+00  0.00000000E+00  0.00000000E+00
  0.00000000E+00  0.00000000E+00  0.00000000E+00
  0.00000000E+00  0.00000000E+00  0.00000000E+00
  0.00000000E+00  0.00000000E+00  0.00000000E+00
  0.00000000E+00  0.00000000E+00  0.00000000E+00
  0.00000000E+00  0.00000000E+00  0.00000000E+00
  0.00000000E+00  0.00000000E+00  0.00000000E+00
  0.00000000E+00  0.00000000E+00  0.00000000E+00
  0.00000000E+00  0.00000000E+00  0.00000000E+00
  0.00000000E+00  0.00000000E+00  0.00000000E+00
  0.00000000E+00  0.00000000E+00  0.00000000E+00
  0.00000000E+00  0.00000000E+00  0.00000000E+00
  0.00000000E+00  0.00000000E+00  0.00000000E+00
  0.00000000E+00  0.00000000E+00  0.00000000E+00
  0.00000000E+00  0.00000000E+00  0.00000000E+00
  0.00000000E+00  0.00000000E+00  0.00000000E+00
