!PBE0 aug-cc-pVTZ d3 TightSCF SlowConv RIJCOSX defgrid2
 
%pal
nprocs 4
end
 
%scf
MaxIter 1500
end
 
%maxcore 3000
 
!CPCM
%cpcm smd true
SMDsolvent "MeCN"
surfacetype gepol_ses
rsolv 2.19
end 
 
* xyz -1 2
C           0.22794298897248     -1.32265639381783      0.00010090294401
C           1.59543811909498     -1.22519922622522      0.00005920870666
C           2.24938913290759      0.05051285824288     -0.00006076880347
C           1.41323843170898      1.21344313185840     -0.00013147831105
C           0.04476039121495      1.11078484934738     -0.00009132277474
C          -0.60963123993324     -0.16243960932374      0.00001856177073
C          -2.03234655015939     -0.32642555516269      0.00004823556518
O          -2.66249266053587     -1.38070299418175      0.00028693239647
O          -2.71431442900417      0.87834037288675      0.00017303848078
C          -4.10409629646245      0.76410388717440      0.00037606736278
H          -4.47622443606713      0.22239507752821     -0.88993521865745
H          -4.50472531304601      1.79227894799534      0.00110489591886
H          -4.47585642501352      0.22119730713171      0.89009526934874
H          -0.56969461364873      2.01480881708110     -0.00015706084987
H           1.88675005189144      2.20080747549968     -0.00022323008499
C           3.65255521641015      0.15685604656258     -0.00011286386991
N           4.82172741475790      0.24605470544831     -0.00015284690981
H           2.21001750339424     -2.13142621067461      0.00011344187289
H          -0.26118628648220     -2.30109838737090      0.00018753589417
*
