C N H                                   
   1.00000000000000     
    40.0000000000000000    0.0000000000000000    0.0000000000000000
     0.0000000000000000   40.0000000000000000    0.0000000000000000
     0.0000000000000000    0.0000000000000000   40.0000000000000000
   C    N    H 
     7     1     9
Selective dynamics
Direct
  0.4772820806475848  0.5301873818410087  0.4994337383615622   T   T   T
  0.5121740281829139  0.5299471475882923  0.4996268443851978   T   T   T
  0.5305000671253919  0.5000062816014269  0.4996278906363029   T   T   T
  0.5682031525854140  0.4999984704984887  0.4989481785872575   T   T   T
  0.5121769733041633  0.4700627105979026  0.4996193001022129   T   T   T
  0.4772882442681983  0.4698170693140952  0.4994256870613598   T   T   T
  0.4590679413801349  0.5000044204534086  0.4992853954874115   T   T   T
  0.4242982963196784  0.4999967233077229  0.4977017683864115   T   T   T
  0.5784503445015259  0.5224823185012968  0.5109623408369619   T   T   T
  0.5778032056007093  0.4994995840903597  0.4731233396243675   T   T   T
  0.5784661119328077  0.4779907455887472  0.5118076340813379   T   T   T
  0.4127837961068255  0.4788932098248731  0.5058458375284840   T   T   T
  0.4127765144248011  0.5210996511588896  0.5058455106177056   T   T   T
  0.4638355968451719  0.4460427684723851  0.4994917729289223   T   T   T
  0.5255339494410095  0.4462157125739265  0.4998642379468358   T   T   T
  0.5255310030947287  0.5537915870742456  0.4998804836603168   T   T   T
  0.4638286942389344  0.5539642175129377  0.4995100397673445   T   T   T
 
  0.00000000E+00  0.00000000E+00  0.00000000E+00
  0.00000000E+00  0.00000000E+00  0.00000000E+00
  0.00000000E+00  0.00000000E+00  0.00000000E+00
  0.00000000E+00  0.00000000E+00  0.00000000E+00
  0.00000000E+00  0.00000000E+00  0.00000000E+00
  0.00000000E+00  0.00000000E+00  0.00000000E+00
  0.00000000E+00  0.00000000E+00  0.00000000E+00
  0.00000000E+00  0.00000000E+00  0.00000000E+00
  0.00000000E+00  0.00000000E+00  0.00000000E+00
  0.00000000E+00  0.00000000E+00  0.00000000E+00
  0.00000000E+00  0.00000000E+00  0.00000000E+00
  0.00000000E+00  0.00000000E+00  0.00000000E+00
  0.00000000E+00  0.00000000E+00  0.00000000E+00
  0.00000000E+00  0.00000000E+00  0.00000000E+00
  0.00000000E+00  0.00000000E+00  0.00000000E+00
  0.00000000E+00  0.00000000E+00  0.00000000E+00
  0.00000000E+00  0.00000000E+00  0.00000000E+00
