C N H                                   
   1.00000000000000     
    40.0000000000000000    0.0000000000000000    0.0000000000000000
     0.0000000000000000   40.0000000000000000    0.0000000000000000
     0.0000000000000000    0.0000000000000000   40.0000000000000000
   C    N    H 
     9     1     7
Selective dynamics
Direct
  0.5288469276908900  0.4683777899885088  0.5000000000000000   T   T   T
  0.5590948443892867  0.4865737541280580  0.5000000000000000   T   T   T
  0.5585787040650796  0.5210777240531573  0.5000000000000000   T   T   T
  0.5279096656336317  0.5382343580441057  0.5000000000000000   T   T   T
  0.4970443139310987  0.5205063787757627  0.5000000000000000   T   T   T
  0.4397157299165952  0.5213236287335457  0.5000000000000000   T   T   T
  0.4376727100406192  0.4864585845806229  0.5000000000000000   T   T   T
  0.4670151135722873  0.4678506426686809  0.5000000000000000   T   T   T
  0.4976320464018816  0.4849714376444376  0.5000000000000000   T   T   T
  0.4685201317572672  0.5383463227064369  0.5000000000000000   T   T   T
  0.4664890609663480  0.4407770003568616  0.5000000000000000   T   T   T
  0.4134990034496475  0.4743373175867978  0.5000000000000000   T   T   T
  0.4170872447008699  0.5362458261770198  0.5000000000000000   T   T   T
  0.5271615507521874  0.5652902816582307  0.5000000000000000   T   T   T
  0.5816835959506538  0.5351396352104361  0.5000000000000000   T   T   T
  0.5825919541797948  0.4731808348806252  0.5000000000000000   T   T   T
  0.5294584026018735  0.4413074828067287  0.5000000000000000   T   T   T
 
  0.00000000E+00  0.00000000E+00  0.00000000E+00
  0.00000000E+00  0.00000000E+00  0.00000000E+00
  0.00000000E+00  0.00000000E+00  0.00000000E+00
  0.00000000E+00  0.00000000E+00  0.00000000E+00
  0.00000000E+00  0.00000000E+00  0.00000000E+00
  0.00000000E+00  0.00000000E+00  0.00000000E+00
  0.00000000E+00  0.00000000E+00  0.00000000E+00
  0.00000000E+00  0.00000000E+00  0.00000000E+00
  0.00000000E+00  0.00000000E+00  0.00000000E+00
  0.00000000E+00  0.00000000E+00  0.00000000E+00
  0.00000000E+00  0.00000000E+00  0.00000000E+00
  0.00000000E+00  0.00000000E+00  0.00000000E+00
  0.00000000E+00  0.00000000E+00  0.00000000E+00
  0.00000000E+00  0.00000000E+00  0.00000000E+00
  0.00000000E+00  0.00000000E+00  0.00000000E+00
  0.00000000E+00  0.00000000E+00  0.00000000E+00
  0.00000000E+00  0.00000000E+00  0.00000000E+00
