C O H                                   
   1.00000000000000     
    40.0000000000000000    0.0000000000000000    0.0000000000000000
     0.0000000000000000   40.0000000000000000    0.0000000000000000
     0.0000000000000000    0.0000000000000000   40.0000000000000000
   C    O    H 
    10     1    12
Selective dynamics
Direct
  0.4857349466970003  0.5215253674869117  0.4999969711068661   T   T   T
  0.4539416037314690  0.5074615898636209  0.4999983505376128   T   T   T
  0.4499537222198938  0.4719348547779763  0.4999996460881499   T   T   T
  0.4779551647384735  0.4514950373933715  0.5000009180329573   T   T   T
  0.5096384477824689  0.4653678303314083  0.5000017130420639   T   T   T
  0.5139362841489183  0.5011529839251855  0.4999988819958449   T   T   T
  0.5462940362490221  0.5162736874462833  0.4999976447570364   T   T   T
  0.5761970449824919  0.4998932894855015  0.5000035475259366   T   T   T
  0.6087789356147990  0.5169310696774999  0.5000007099470594   T   T   T
  0.3944161508619917  0.5162632745395368  0.4999994109693204   T   T   T
  0.4283429229391024  0.5286071053398617  0.4999968896771999   T   T   T
  0.6234433383527107  0.5089813837395999  0.4782636451754525   T   T   T
  0.6234409404338056  0.5089942514427032  0.5217440728713606   T   T   T
  0.6064716923007253  0.5440404136471215  0.4999925337943855   T   T   T
  0.5768046772821622  0.4727664093537678  0.5000098577310019   T   T   T
  0.5467233451920877  0.5434397821538292  0.4999924803400153   T   T   T
  0.5312421176850685  0.4491333798554835  0.5000022246825140   T   T   T
  0.4749016770925195  0.4246195727183227  0.5000045197945715   T   T   T
  0.4252388718858762  0.4609878518699581  0.5000019811582564   T   T   T
  0.3789175212236743  0.5385233910868589  0.4999990443175404   T   T   T
  0.3897488791727188  0.5015658775523197  0.5224667086078347   T   T   T
  0.3897458648305748  0.5015629794453271  0.4775345933255869   T   T   T
  0.4881318145824740  0.5484786168675579  0.4999936545214254   T   T   T
 
  0.00000000E+00  0.00000000E+00  0.00000000E+00
  0.00000000E+00  0.00000000E+00  0.00000000E+00
  0.00000000E+00  0.00000000E+00  0.00000000E+00
  0.00000000E+00  0.00000000E+00  0.00000000E+00
  0.00000000E+00  0.00000000E+00  0.00000000E+00
  0.00000000E+00  0.00000000E+00  0.00000000E+00
  0.00000000E+00  0.00000000E+00  0.00000000E+00
  0.00000000E+00  0.00000000E+00  0.00000000E+00
  0.00000000E+00  0.00000000E+00  0.00000000E+00
  0.00000000E+00  0.00000000E+00  0.00000000E+00
  0.00000000E+00  0.00000000E+00  0.00000000E+00
  0.00000000E+00  0.00000000E+00  0.00000000E+00
  0.00000000E+00  0.00000000E+00  0.00000000E+00
  0.00000000E+00  0.00000000E+00  0.00000000E+00
  0.00000000E+00  0.00000000E+00  0.00000000E+00
  0.00000000E+00  0.00000000E+00  0.00000000E+00
  0.00000000E+00  0.00000000E+00  0.00000000E+00
  0.00000000E+00  0.00000000E+00  0.00000000E+00
  0.00000000E+00  0.00000000E+00  0.00000000E+00
  0.00000000E+00  0.00000000E+00  0.00000000E+00
  0.00000000E+00  0.00000000E+00  0.00000000E+00
  0.00000000E+00  0.00000000E+00  0.00000000E+00
  0.00000000E+00  0.00000000E+00  0.00000000E+00
