C O S H                                 
   1.00000000000000     
    40.0000000000000000    0.0000000000000000    0.0000000000000000
     0.0000000000000000   40.0000000000000000    0.0000000000000000
     0.0000000000000000    0.0000000000000000   40.0000000000000000
   C    O    S    H 
     7     1     1     8
Selective dynamics
Direct
  0.5515039528313253  0.5016133395292641  0.4969177208443867   T   T   T
  0.5363616427086910  0.5338090945874896  0.4983823585008764   T   T   T
  0.5022889876692886  0.5365426155755983  0.5008503912236577   T   T   T
  0.4820688175191705  0.5071983804062654  0.5018097015833192   T   T   T
  0.4970032416073806  0.4749793757356215  0.5009749652278117   T   T   T
  0.5312052475715205  0.4723474208679548  0.4986034734047493   T   T   T
  0.4262575064250527  0.4846583429907270  0.5036797172475289   T   T   T
  0.4493573771734631  0.5126371901621667  0.5034436685579564   T   T   T
  0.5937554582257434  0.4956711113764953  0.4930200446434370   T   T   T
  0.5428488995124283  0.4477140183639818  0.4978691807900333   T   T   T
  0.4817525522338286  0.4524994534119458  0.5021376393385140   T   T   T
  0.4014425297596986  0.4959761170032735  0.5045922186906253   T   T   T
  0.4291611156099933  0.4698917628927575  0.4807398946726522   T   T   T
  0.4304598257721324  0.4691429921163817  0.5259102991904712   T   T   T
  0.4900477874749498  0.5608370455755605  0.5019873517394586   T   T   T
  0.5518528305079542  0.5561905195089452  0.4975040960898767   T   T   T
  0.6026302273973556  0.5282922198955831  0.4915752782546576   T   T   T
 
  0.00000000E+00  0.00000000E+00  0.00000000E+00
  0.00000000E+00  0.00000000E+00  0.00000000E+00
  0.00000000E+00  0.00000000E+00  0.00000000E+00
  0.00000000E+00  0.00000000E+00  0.00000000E+00
  0.00000000E+00  0.00000000E+00  0.00000000E+00
  0.00000000E+00  0.00000000E+00  0.00000000E+00
  0.00000000E+00  0.00000000E+00  0.00000000E+00
  0.00000000E+00  0.00000000E+00  0.00000000E+00
  0.00000000E+00  0.00000000E+00  0.00000000E+00
  0.00000000E+00  0.00000000E+00  0.00000000E+00
  0.00000000E+00  0.00000000E+00  0.00000000E+00
  0.00000000E+00  0.00000000E+00  0.00000000E+00
  0.00000000E+00  0.00000000E+00  0.00000000E+00
  0.00000000E+00  0.00000000E+00  0.00000000E+00
  0.00000000E+00  0.00000000E+00  0.00000000E+00
  0.00000000E+00  0.00000000E+00  0.00000000E+00
  0.00000000E+00  0.00000000E+00  0.00000000E+00
