C O H                                   
   1.00000000000000     
    40.0000000000000000    0.0000000000000000    0.0000000000000000
     0.0000000000000000   40.0000000000000000    0.0000000000000000
     0.0000000000000000    0.0000000000000000   40.0000000000000000
   C    O    H 
    12     1    10
Selective dynamics
Direct
  0.5341754515301783  0.4868895675416145  0.5198310595668624   T   T   T
  0.5656335473461542  0.4717427629565298  0.5209933331971136   T   T   T
  0.5927751936022251  0.4855923839838244  0.5037924796376700   T   T   T
  0.5883233780005133  0.5149504999929581  0.4852989794981406   T   T   T
  0.5569596696831239  0.5302735190687200  0.4837474943206108   T   T   T
  0.5300576856530118  0.5160823132882535  0.5009711385984695   T   T   T
  0.4699420495573881  0.5160797874211797  0.4990307321730746   T   T   T
  0.4430377011322427  0.5302714450596850  0.5162512487400736   T   T   T
  0.4116746642525178  0.5149491401596987  0.5146971387729283   T   T   T
  0.4072241145056399  0.4855890165697565  0.4962052572146228   T   T   T
  0.4343692994500897  0.4717388897715227  0.4790077085186859   T   T   T
  0.4658256372711987  0.4868860414749832  0.4801732846047971   T   T   T
  0.4999994448246655  0.5334952173810271  0.5000016733125833   T   T   T
  0.4869270652296896  0.4761439234675557  0.4666676855163577   T   T   T
  0.4311138733722033  0.4489588718336326  0.4643511764449021   T   T   T
  0.3827770248196518  0.4735825246210388  0.4951074785320415   T   T   T
  0.3906871738701511  0.5259837825261836  0.5281713826492416   T   T   T
  0.4470107023679863  0.5530543495347755  0.5306789108529295   T   T   T
  0.5529846587353906  0.5530535341677123  0.4693167828139080   T   T   T
  0.6093087203571942  0.5259836417765871  0.4718219664625525   T   T   T
  0.6172235509040622  0.4735863903414161  0.5048892261234095   T   T   T
  0.5688904924879996  0.4489646695180372  0.5356521963158772   T   T   T
  0.5130769010467352  0.4761487275432917  0.5333406661331505   T   T   T
 
  0.00000000E+00  0.00000000E+00  0.00000000E+00
  0.00000000E+00  0.00000000E+00  0.00000000E+00
  0.00000000E+00  0.00000000E+00  0.00000000E+00
  0.00000000E+00  0.00000000E+00  0.00000000E+00
  0.00000000E+00  0.00000000E+00  0.00000000E+00
  0.00000000E+00  0.00000000E+00  0.00000000E+00
  0.00000000E+00  0.00000000E+00  0.00000000E+00
  0.00000000E+00  0.00000000E+00  0.00000000E+00
  0.00000000E+00  0.00000000E+00  0.00000000E+00
  0.00000000E+00  0.00000000E+00  0.00000000E+00
  0.00000000E+00  0.00000000E+00  0.00000000E+00
  0.00000000E+00  0.00000000E+00  0.00000000E+00
  0.00000000E+00  0.00000000E+00  0.00000000E+00
  0.00000000E+00  0.00000000E+00  0.00000000E+00
  0.00000000E+00  0.00000000E+00  0.00000000E+00
  0.00000000E+00  0.00000000E+00  0.00000000E+00
  0.00000000E+00  0.00000000E+00  0.00000000E+00
  0.00000000E+00  0.00000000E+00  0.00000000E+00
  0.00000000E+00  0.00000000E+00  0.00000000E+00
  0.00000000E+00  0.00000000E+00  0.00000000E+00
  0.00000000E+00  0.00000000E+00  0.00000000E+00
  0.00000000E+00  0.00000000E+00  0.00000000E+00
  0.00000000E+00  0.00000000E+00  0.00000000E+00
