C H                                     
   1.00000000000000     
    40.0000000000000000    0.0000000000000000    0.0000000000000000
     0.0000000000000000   40.0000000000000000    0.0000000000000000
     0.0000000000000000    0.0000000000000000   40.0000000000000000
   C    H 
    14    12
Selective dynamics
Direct
  0.5600360480213317  0.4795332611255968  0.5169495453936006   T   T   T
  0.5318262177487761  0.4903203307083931  0.4989727937137219   T   T   T
  0.5346135621294963  0.5195157109177969  0.4795318353538782   T   T   T
  0.5647467459900769  0.5369754307973151  0.4776771153044283   T   T   T
  0.5926700389033598  0.5258199550204588  0.4955031299746658   T   T   T
  0.5901605642646619  0.4970467179951587  0.5151896630303918   T   T   T
  0.5000000000000000  0.4711931528706965  0.5000000000000000   T   T   T
  0.5000000000000000  0.4374385928519336  0.4999990000000025   T   T   T
  0.4681737822512238  0.4903203307083931  0.5010272062862781   T   T   T
  0.4399639519786686  0.4795342611256014  0.4830504546063993   T   T   T
  0.4098394357353382  0.4970477179951562  0.4848103369696083   T   T   T
  0.4073299610966402  0.5258209550204562  0.5044968700253342   T   T   T
  0.4352532540099232  0.5369754307973151  0.5223238846955836   T   T   T
  0.4653864378705036  0.5195157109177969  0.5204691646461262   T   T   T
  0.6116881407902275  0.4883878391201986  0.5295231751660295   T   T   T
  0.6161718534267869  0.5395814539136282  0.4942133019705315   T   T   T
  0.5664299003454225  0.5594078294972662  0.4622498550272313   T   T   T
  0.5129370027290564  0.5283832705958548  0.4655534262504631   T   T   T
  0.4768291577969245  0.4232297798305407  0.5019014192077444   T   T   T
  0.5231698422030781  0.4232287798305361  0.4980965807922536   T   T   T
  0.4870629972709435  0.5283822705958573  0.5344475737495343   T   T   T
  0.4335700996545777  0.5594068294972687  0.5377521449727707   T   T   T
  0.3838281465732131  0.5395824539136328  0.5057876980294660   T   T   T
  0.3883118592097725  0.4883888391201960  0.4704758248339730   T   T   T
  0.4419720611419703  0.4574810476164737  0.4671279699156839   T   T   T
  0.5580279388580297  0.4574800476164762  0.5328700300843141   T   T   T
 
  0.00000000E+00  0.00000000E+00  0.00000000E+00
  0.00000000E+00  0.00000000E+00  0.00000000E+00
  0.00000000E+00  0.00000000E+00  0.00000000E+00
  0.00000000E+00  0.00000000E+00  0.00000000E+00
  0.00000000E+00  0.00000000E+00  0.00000000E+00
  0.00000000E+00  0.00000000E+00  0.00000000E+00
  0.00000000E+00  0.00000000E+00  0.00000000E+00
  0.00000000E+00  0.00000000E+00  0.00000000E+00
  0.00000000E+00  0.00000000E+00  0.00000000E+00
  0.00000000E+00  0.00000000E+00  0.00000000E+00
  0.00000000E+00  0.00000000E+00  0.00000000E+00
  0.00000000E+00  0.00000000E+00  0.00000000E+00
  0.00000000E+00  0.00000000E+00  0.00000000E+00
  0.00000000E+00  0.00000000E+00  0.00000000E+00
  0.00000000E+00  0.00000000E+00  0.00000000E+00
  0.00000000E+00  0.00000000E+00  0.00000000E+00
  0.00000000E+00  0.00000000E+00  0.00000000E+00
  0.00000000E+00  0.00000000E+00  0.00000000E+00
  0.00000000E+00  0.00000000E+00  0.00000000E+00
  0.00000000E+00  0.00000000E+00  0.00000000E+00
  0.00000000E+00  0.00000000E+00  0.00000000E+00
  0.00000000E+00  0.00000000E+00  0.00000000E+00
  0.00000000E+00  0.00000000E+00  0.00000000E+00
  0.00000000E+00  0.00000000E+00  0.00000000E+00
  0.00000000E+00  0.00000000E+00  0.00000000E+00
  0.00000000E+00  0.00000000E+00  0.00000000E+00
