C O S H                                 
   1.00000000000000     
    40.0000000000000000    0.0000000000000000    0.0000000000000000
     0.0000000000000000   40.0000000000000000    0.0000000000000000
     0.0000000000000000    0.0000000000000000   40.0000000000000000
   C    O    S    H 
     7     1     1     8
Selective dynamics
Direct
  0.5516267158075997  0.5014407261668734  0.4977775208714755   T   T   T
  0.5366372891803780  0.5331905456638806  0.4991820876176314   T   T   T
  0.5020489226260475  0.5362385984442249  0.5010529625435877   T   T   T
  0.4816482824614311  0.5076583248933202  0.5019344702027060   T   T   T
  0.4964341257687012  0.4759079862021204  0.5009932394172630   T   T   T
  0.5312200325267447  0.4730128379298420  0.4987673914184776   T   T   T
  0.4262865486878926  0.4847085809025878  0.5035112990790066   T   T   T
  0.4478954346154190  0.5133633417987413  0.5036246578719693   T   T   T
  0.5955171980189677  0.4957811057771582  0.4955576342494207   T   T   T
  0.5423373418096934  0.4481348861503556  0.4976595711910545   T   T   T
  0.4813385508606565  0.4532911092180453  0.5016940472655912   T   T   T
  0.4008088795206707  0.4945931084563408  0.5043425622085973   T   T   T
  0.4296713106284237  0.4698610796709629  0.4806152631091358   T   T   T
  0.4307190371438298  0.4688309348666278  0.5255277518118352   T   T   T
  0.4903995696830213  0.5608644868040140  0.5019046447565263   T   T   T
  0.5520264312268717  0.5556765990961162  0.4987545076673849   T   T   T
  0.6033823294336349  0.5274467479588000  0.4870983887183420   T   T   T
 
  0.00000000E+00  0.00000000E+00  0.00000000E+00
  0.00000000E+00  0.00000000E+00  0.00000000E+00
  0.00000000E+00  0.00000000E+00  0.00000000E+00
  0.00000000E+00  0.00000000E+00  0.00000000E+00
  0.00000000E+00  0.00000000E+00  0.00000000E+00
  0.00000000E+00  0.00000000E+00  0.00000000E+00
  0.00000000E+00  0.00000000E+00  0.00000000E+00
  0.00000000E+00  0.00000000E+00  0.00000000E+00
  0.00000000E+00  0.00000000E+00  0.00000000E+00
  0.00000000E+00  0.00000000E+00  0.00000000E+00
  0.00000000E+00  0.00000000E+00  0.00000000E+00
  0.00000000E+00  0.00000000E+00  0.00000000E+00
  0.00000000E+00  0.00000000E+00  0.00000000E+00
  0.00000000E+00  0.00000000E+00  0.00000000E+00
  0.00000000E+00  0.00000000E+00  0.00000000E+00
  0.00000000E+00  0.00000000E+00  0.00000000E+00
  0.00000000E+00  0.00000000E+00  0.00000000E+00
