C H                                     
   1.00000000000000     
    40.0000000000000000    0.0000000000000000    0.0000000000000000
     0.0000000000000000   40.0000000000000000    0.0000000000000000
     0.0000000000000000    0.0000000000000000   40.0000000000000000
   C    H 
    14    12
Selective dynamics
Direct
  0.5600306276042346  0.4795128398809680  0.5169801090561279   T   T   T
  0.5318319582154345  0.4903337833414554  0.4989797315542503   T   T   T
  0.5345926682818103  0.5195314234133761  0.4795061610044300   T   T   T
  0.5647376338166907  0.5370140505518251  0.4776469965370609   T   T   T
  0.5926745787084329  0.5258296810411665  0.4954955385227819   T   T   T
  0.5901775253205273  0.4970404034235969  0.5152188512114293   T   T   T
  0.5000000000000000  0.4711761331294113  0.5000000000000000   T   T   T
  0.5000000000000000  0.4373980218975717  0.4999990000000025   T   T   T
  0.4681680417845655  0.4903337833414554  0.5010202684457497   T   T   T
  0.4399693723957654  0.4795138398809726  0.4830198909438721   T   T   T
  0.4098224746794727  0.4970414034235944  0.4847811487885707   T   T   T
  0.4073254212915671  0.5258306810411639  0.5045044614772181   T   T   T
  0.4352623661833093  0.5370140505518251  0.5223540034629508   T   T   T
  0.4654073317181897  0.5195314234133761  0.5204948389955746   T   T   T
  0.6117144646415582  0.4883575711839327  0.5295499480213479   T   T   T
  0.6161802844848268  0.5395878410066146  0.4942007997138447   T   T   T
  0.5664124356820182  0.5594534300819660  0.4622115925867547   T   T   T
  0.5129194318625707  0.5284161273691765  0.4655145324975010   T   T   T
  0.4768118830710080  0.4231875559295730  0.5018942158008599   T   T   T
  0.5231871169289946  0.4231865559295684  0.4981037841991380   T   T   T
  0.4870805681374293  0.5284151273691791  0.5344864675024965   T   T   T
  0.4335875643179818  0.5594524300819685  0.5377904074132474   T   T   T
  0.3838197155151732  0.5395888410066192  0.5058002002861528   T   T   T
  0.3882855353584418  0.4883585711839302  0.4704490519786546   T   T   T
  0.4419719328269807  0.4574467152628543  0.4670975126242496   T   T   T
  0.5580280671730193  0.4574457152628568  0.5329004873757484   T   T   T
 
  0.00000000E+00  0.00000000E+00  0.00000000E+00
  0.00000000E+00  0.00000000E+00  0.00000000E+00
  0.00000000E+00  0.00000000E+00  0.00000000E+00
  0.00000000E+00  0.00000000E+00  0.00000000E+00
  0.00000000E+00  0.00000000E+00  0.00000000E+00
  0.00000000E+00  0.00000000E+00  0.00000000E+00
  0.00000000E+00  0.00000000E+00  0.00000000E+00
  0.00000000E+00  0.00000000E+00  0.00000000E+00
  0.00000000E+00  0.00000000E+00  0.00000000E+00
  0.00000000E+00  0.00000000E+00  0.00000000E+00
  0.00000000E+00  0.00000000E+00  0.00000000E+00
  0.00000000E+00  0.00000000E+00  0.00000000E+00
  0.00000000E+00  0.00000000E+00  0.00000000E+00
  0.00000000E+00  0.00000000E+00  0.00000000E+00
  0.00000000E+00  0.00000000E+00  0.00000000E+00
  0.00000000E+00  0.00000000E+00  0.00000000E+00
  0.00000000E+00  0.00000000E+00  0.00000000E+00
  0.00000000E+00  0.00000000E+00  0.00000000E+00
  0.00000000E+00  0.00000000E+00  0.00000000E+00
  0.00000000E+00  0.00000000E+00  0.00000000E+00
  0.00000000E+00  0.00000000E+00  0.00000000E+00
  0.00000000E+00  0.00000000E+00  0.00000000E+00
  0.00000000E+00  0.00000000E+00  0.00000000E+00
  0.00000000E+00  0.00000000E+00  0.00000000E+00
  0.00000000E+00  0.00000000E+00  0.00000000E+00
  0.00000000E+00  0.00000000E+00  0.00000000E+00
