C H                                     
   1.00000000000000     
    40.0000000000000000    0.0000000000000000    0.0000000000000000
     0.0000000000000000   40.0000000000000000    0.0000000000000000
     0.0000000000000000    0.0000000000000000   40.0000000000000000
   C    H 
     8     6
Selective dynamics
Direct
  0.5345047877260423  0.4697234579221486  0.5000000438024332   T   T   T
  0.5520511254594209  0.5000004866960921  0.5000003005151163   T   T   T
  0.5345017740754338  0.5302757617459473  0.5000000441615082   T   T   T
  0.4996202837049659  0.5304252750205143  0.4999988126234806   T   T   T
  0.4817582039030826  0.4999971693021518  0.4999970248784236   T   T   T
  0.4996228670565668  0.4695701573473653  0.4999988120867494   T   T   T
  0.4461253328081232  0.5000006682580642  0.4999957629602133   T   T   T
  0.4157188599564910  0.5000116614010454  0.4999979452558960   T   T   T
  0.4858713885858236  0.4460274275476598  0.4999982648531479   T   T   T
  0.3888964383873213  0.4999979301158562  0.5000138788045180   T   T   T
  0.4858664053840585  0.5539665211591887  0.4999982651206408   T   T   T
  0.5480663549124616  0.5539417963313525  0.5000002693228149   T   T   T
  0.5793244840703654  0.5000019164800346  0.5000003064364471   T   T   T
  0.5480716939698430  0.4460587706725746  0.5000002691786104   T   T   T
 
  0.00000000E+00  0.00000000E+00  0.00000000E+00
  0.00000000E+00  0.00000000E+00  0.00000000E+00
  0.00000000E+00  0.00000000E+00  0.00000000E+00
  0.00000000E+00  0.00000000E+00  0.00000000E+00
  0.00000000E+00  0.00000000E+00  0.00000000E+00
  0.00000000E+00  0.00000000E+00  0.00000000E+00
  0.00000000E+00  0.00000000E+00  0.00000000E+00
  0.00000000E+00  0.00000000E+00  0.00000000E+00
  0.00000000E+00  0.00000000E+00  0.00000000E+00
  0.00000000E+00  0.00000000E+00  0.00000000E+00
  0.00000000E+00  0.00000000E+00  0.00000000E+00
  0.00000000E+00  0.00000000E+00  0.00000000E+00
  0.00000000E+00  0.00000000E+00  0.00000000E+00
  0.00000000E+00  0.00000000E+00  0.00000000E+00
