!PBE0 aug-cc-pVTZ d3 TightSCF SlowConv RIJCOSX defgrid2
 
%pal
nprocs 4
end
 
%scf
MaxIter 1500
end
 
%maxcore 3000
 
!CPCM
%cpcm smd true
SMDsolvent "MeCN"
surfacetype gepol_ses
rsolv 2.19
end 
 
* xyz 0 1
C          -0.69471715027891      1.20160424367180      0.00254330764544
C           0.69612063581105      1.19291899288814      0.00968566042107
C           1.42778733631965      0.00018404946816      0.01007822944484
C           2.93063058367763     -0.00027863689039     -0.01829178119376
H           3.34402418608942      0.90078695962724      0.46603728071123
H           3.31730142827762     -0.02014085009214     -1.05503454463859
H           3.34459568522108     -0.88206330588670      0.50008328858434
C           0.69618993551697     -1.19280776592252      0.00927470210724
C          -0.69448057691314     -1.20162515498911      0.00211243242400
C          -1.42112887903605      0.00001156196422     -0.00389874102897
N          -2.80457629708089     -0.00021726257641     -0.05900293362540
H          -3.26571318600359     -0.84658941152166      0.25460910629618
H          -3.26597866165769      0.84602614670405      0.25456635083211
H          -1.23244316710201     -2.15552812692684      0.00133757208656
H           1.23001055078301     -2.14947021386169      0.01854947119546
H           1.22985485991374      2.14960675922401      0.01926471808220
H          -1.23272228353791      2.15547551511983      0.00212038065604
*
