C N O H                                 
   1.00000000000000     
    40.0000000000000000    0.0000000000000000    0.0000000000000000
     0.0000000000000000   40.0000000000000000    0.0000000000000000
     0.0000000000000000    0.0000000000000000   40.0000000000000000
   C    N    O    H 
     9     1     2     7
Selective dynamics
Direct
  0.5166078839272146  0.4643934448115203  0.4999997560028149   T   T   T
  0.5512655234573387  0.4668398555646434  0.4999970437741865   T   T   T
  0.5664487346177154  0.4986048818113247  0.4999949574333371   T   T   T
  0.5466194500007120  0.5276834099801064  0.4999957811074154   T   T   T
  0.5119566999466230  0.5249321048201168  0.4999983479587442   T   T   T
  0.4967440345438021  0.4933055712488539  0.4999999213420736   T   T   T
  0.4596221836874506  0.4889923159183667  0.5000026663256918   T   T   T
  0.4071978171197586  0.5166081987632793  0.5000067870609186   T   T   T
  0.6020526701795390  0.5013394156867861  0.4999933535246086   T   T   T
  0.6311959737440418  0.5035211056615267  0.4999945420740701   T   T   T
  0.4454419391499513  0.4618542824678187  0.5000040016668024   T   T   T
  0.4433345798352093  0.5187032296819822  0.5000051360593929   T   T   T
  0.3984239768208369  0.5033712407808864  0.4776395979788930   T   T   T
  0.3984441708257123  0.5425070241725507  0.5000181713063299   T   T   T
  0.3984253817461294  0.5033504051388533  0.5223619050336836   T   T   T
  0.4965423119650225  0.5473526696198974  0.4999960252230196   T   T   T
  0.5585544317822055  0.5521513278412371  0.4999917650763095   T   T   T
  0.5667419874591317  0.4444405899803812  0.4999979842913049   T   T   T
  0.5043802491916125  0.4400499260498663  0.5000022567604248   T   T   T
 
  0.00000000E+00  0.00000000E+00  0.00000000E+00
  0.00000000E+00  0.00000000E+00  0.00000000E+00
  0.00000000E+00  0.00000000E+00  0.00000000E+00
  0.00000000E+00  0.00000000E+00  0.00000000E+00
  0.00000000E+00  0.00000000E+00  0.00000000E+00
  0.00000000E+00  0.00000000E+00  0.00000000E+00
  0.00000000E+00  0.00000000E+00  0.00000000E+00
  0.00000000E+00  0.00000000E+00  0.00000000E+00
  0.00000000E+00  0.00000000E+00  0.00000000E+00
  0.00000000E+00  0.00000000E+00  0.00000000E+00
  0.00000000E+00  0.00000000E+00  0.00000000E+00
  0.00000000E+00  0.00000000E+00  0.00000000E+00
  0.00000000E+00  0.00000000E+00  0.00000000E+00
  0.00000000E+00  0.00000000E+00  0.00000000E+00
  0.00000000E+00  0.00000000E+00  0.00000000E+00
  0.00000000E+00  0.00000000E+00  0.00000000E+00
  0.00000000E+00  0.00000000E+00  0.00000000E+00
  0.00000000E+00  0.00000000E+00  0.00000000E+00
  0.00000000E+00  0.00000000E+00  0.00000000E+00
