C H                                     
   1.00000000000000     
    40.0000000000000000    0.0000000000000000    0.0000000000000000
     0.0000000000000000   40.0000000000000000    0.0000000000000000
     0.0000000000000000    0.0000000000000000   40.0000000000000000
   C    H 
     8    10
Selective dynamics
Direct
  0.4698608597783357  0.4681957343821961  0.5003409887105147   T   T   T
  0.4999818218707167  0.4509072867230176  0.5009081808425581   T   T   T
  0.5301898403603393  0.4681846126108611  0.5008075940021142   T   T   T
  0.5305769206128994  0.5030483150675202  0.5000528078378317   T   T   T
  0.5629617737633379  0.5220825176091640  0.4990742052793498   T   T   T
  0.5000437508191828  0.5200124199069920  0.4995767890020947   T   T   T
  0.4695397147312246  0.5031293770251096  0.4997709109555939   T   T   T
  0.4370573452248497  0.5220311104190849  0.5001375465317136   T   T   T
  0.5618724474368459  0.5444265870623526  0.5147374064286129   T   T   T
  0.5838254523595110  0.5066605082616873  0.5075091221163462   T   T   T
  0.5686412128348146  0.5303989382210437  0.4736277058810774   T   T   T
  0.4401454271798997  0.5473917175065605  0.4905553433330603   T   T   T
  0.4272191550866743  0.5240283948350211  0.5255990752443083   T   T   T
  0.4180306985268202  0.5094025011073505  0.4851702546298946   T   T   T
  0.5000735969654292  0.5472042982808677  0.4990856255130768   T   T   T
  0.5536290805470738  0.4545203795440307  0.5012539378048185   T   T   T
  0.4999691515605513  0.4237975904268501  0.5014008060205968   T   T   T
  0.4463817503415014  0.4545767110102926  0.5003926998663997   T   T   T
 
  0.00000000E+00  0.00000000E+00  0.00000000E+00
  0.00000000E+00  0.00000000E+00  0.00000000E+00
  0.00000000E+00  0.00000000E+00  0.00000000E+00
  0.00000000E+00  0.00000000E+00  0.00000000E+00
  0.00000000E+00  0.00000000E+00  0.00000000E+00
  0.00000000E+00  0.00000000E+00  0.00000000E+00
  0.00000000E+00  0.00000000E+00  0.00000000E+00
  0.00000000E+00  0.00000000E+00  0.00000000E+00
  0.00000000E+00  0.00000000E+00  0.00000000E+00
  0.00000000E+00  0.00000000E+00  0.00000000E+00
  0.00000000E+00  0.00000000E+00  0.00000000E+00
  0.00000000E+00  0.00000000E+00  0.00000000E+00
  0.00000000E+00  0.00000000E+00  0.00000000E+00
  0.00000000E+00  0.00000000E+00  0.00000000E+00
  0.00000000E+00  0.00000000E+00  0.00000000E+00
  0.00000000E+00  0.00000000E+00  0.00000000E+00
  0.00000000E+00  0.00000000E+00  0.00000000E+00
  0.00000000E+00  0.00000000E+00  0.00000000E+00
