!r2SCANh aug-cc-pVTZ d3 TightSCF SlowConv RIJCOSX defgrid2

%pal
nprocs 15
end

%scf
MaxIter 1500
end

%maxcore 3500

!CPCM
%cpcm smd true
SMDsolvent "WATER"
surfacetype gepol_ses
rsolv 1.40
end

* xyz -1 2
C          -0.71119473453608     -1.27753769603753     -1.66469193495667
C          -0.84757971737407     -1.37051300939389      2.56012596471587
C           0.17600407523538     -0.66718968097552      3.30203602345821
C           0.07441786205000     -0.73736210099662      4.72686229958031
C          -0.95819946382070     -1.44732964560191      5.30922921995402
C          -1.89246898961745     -2.08918221632698      4.48282869513414
N          -1.82946922247699     -2.04538372747969      3.14996632780079
H           0.82375813463839     -0.22230666320522      5.33950916179957
H          -1.05139748109670     -1.51180696271490      6.40034489381934
H          -2.72424323526883     -2.66100937066717      4.91891129019417
C          -0.79539610804297     -1.33457211558685      1.08568997656786
C           0.27704054129144     -0.59784286447255      0.45308262509050
C           0.27660122861131     -0.59863568883798     -0.97709504218512
C          -1.70061257174833     -1.95699542487128     -0.93863375126110
N          -1.73203419494814     -1.97823597597462      0.39590607204878
H           1.06664268699891     -0.05607062090082     -1.50961690897062
H          -0.72694279099019     -1.28881726054281     -2.76150198645861
H          -2.49859691297974     -2.50535045021093     -1.45973231485977
C           1.19223786884036      0.03130278829810      2.63097992514689
C           1.24199802211239      0.06547304417526      1.22748014190895
H           1.95294993788081      0.55389136062698      3.22288120162125
H           2.04173228124121      0.61487911869694      0.71689035185124
*
