C H                                     
   1.00000000000000     
    40.0000000000000000    0.0000000000000000    0.0000000000000000
     0.0000000000000000   40.0000000000000000    0.0000000000000000
     0.0000000000000000    0.0000000000000000   40.0000000000000000
   C    H 
     8     6
Selective dynamics
Direct
  0.5340933939147264  0.4691201426398409  0.4999996265701748   T   T   T
  0.5513878483352512  0.5000008551316251  0.5000003814824807   T   T   T
  0.5340907305651437  0.5308799665776208  0.4999997043952472   T   T   T
  0.4996899870913427  0.5311920176692206  0.4999976579138393   T   T   T
  0.4818260362739891  0.4999982093301969  0.4999966315664279   T   T   T
  0.4996928109820262  0.4688062324070715  0.4999972296516106   T   T   T
  0.4471355653614361  0.4999985717900654  0.4999990038398335   T   T   T
  0.4164175209636606  0.4999996310397246  0.5000003160991696   T   T   T
  0.4856279425220192  0.4455002401724374  0.4999978508292650   T   T   T
  0.3895561572396037  0.5000036195335567  0.5000097162170783   T   T   T
  0.4856234810047447  0.5544968249848270  0.4999981206681433   T   T   T
  0.5481009135323807  0.5542136960994616  0.5000012197346954   T   T   T
  0.5786528187962592  0.5000016776650547  0.5000013885310921   T   T   T
  0.5481047934174238  0.4457873149592926  0.5000011525009492   T   T   T
 
  0.00000000E+00  0.00000000E+00  0.00000000E+00
  0.00000000E+00  0.00000000E+00  0.00000000E+00
  0.00000000E+00  0.00000000E+00  0.00000000E+00
  0.00000000E+00  0.00000000E+00  0.00000000E+00
  0.00000000E+00  0.00000000E+00  0.00000000E+00
  0.00000000E+00  0.00000000E+00  0.00000000E+00
  0.00000000E+00  0.00000000E+00  0.00000000E+00
  0.00000000E+00  0.00000000E+00  0.00000000E+00
  0.00000000E+00  0.00000000E+00  0.00000000E+00
  0.00000000E+00  0.00000000E+00  0.00000000E+00
  0.00000000E+00  0.00000000E+00  0.00000000E+00
  0.00000000E+00  0.00000000E+00  0.00000000E+00
  0.00000000E+00  0.00000000E+00  0.00000000E+00
  0.00000000E+00  0.00000000E+00  0.00000000E+00
