C H                                     
   1.00000000000000     
    40.0000000000000000    0.0000000000000000    0.0000000000000000
     0.0000000000000000   40.0000000000000000    0.0000000000000000
     0.0000000000000000    0.0000000000000000   40.0000000000000000
   C    H 
    10    12
Selective dynamics
Direct
  0.4950063203656256  0.4743077428654914  0.5001090168896098   T   T   T
  0.4608527371617086  0.4703624096466044  0.5001787106464306   T   T   T
  0.4390663803338128  0.4985001606160608  0.5002646792672181   T   T   T
  0.4531722764481074  0.5310221020056574  0.5002074918170010   T   T   T
  0.4873285644804781  0.5353167106742305  0.5000967554090820   T   T   T
  0.5093675184550293  0.5071459882566600  0.5000683890906004   T   T   T
  0.5443630430802955  0.5135277199313109  0.5000298607069169   T   T   T
  0.5695622487525327  0.4898035853212264  0.5000229561622689   T   T   T
  0.6053058327947625  0.4983307909991694  0.4999578453781197   T   T   T
  0.4022150835493150  0.4936833954626394  0.5000270295902354   T   T   T
  0.6176624587522497  0.4866913176104788  0.5217387713963362   T   T   T
  0.6176041414891102  0.4866089369197226  0.4781861367791151   T   T   T
  0.6099816394697797  0.5253158455914786  0.4999070596217123   T   T   T
  0.5631394001566505  0.4632488612148222  0.5000757420926263   T   T   T
  0.5518308956353408  0.5398183782018648  0.4999657710882914   T   T   T
  0.4981568843417321  0.5603423213315537  0.5000872012475668   T   T   T
  0.4366287562622162  0.5526778298355097  0.5002954565495870   T   T   T
  0.3886902575062052  0.5169773012865662  0.5050163327209276   T   T   T
  0.3943255717408718  0.4842741586732728  0.4753006794386536   T   T   T
  0.3946600268674416  0.4743996243747830  0.5181129439579308   T   T   T
  0.4500203408939001  0.4453416261530876  0.5002467781645450   T   T   T
  0.5110596214628416  0.4523041930278282  0.5001053919852012   T   T   T
 
  0.00000000E+00  0.00000000E+00  0.00000000E+00
  0.00000000E+00  0.00000000E+00  0.00000000E+00
  0.00000000E+00  0.00000000E+00  0.00000000E+00
  0.00000000E+00  0.00000000E+00  0.00000000E+00
  0.00000000E+00  0.00000000E+00  0.00000000E+00
  0.00000000E+00  0.00000000E+00  0.00000000E+00
  0.00000000E+00  0.00000000E+00  0.00000000E+00
  0.00000000E+00  0.00000000E+00  0.00000000E+00
  0.00000000E+00  0.00000000E+00  0.00000000E+00
  0.00000000E+00  0.00000000E+00  0.00000000E+00
  0.00000000E+00  0.00000000E+00  0.00000000E+00
  0.00000000E+00  0.00000000E+00  0.00000000E+00
  0.00000000E+00  0.00000000E+00  0.00000000E+00
  0.00000000E+00  0.00000000E+00  0.00000000E+00
  0.00000000E+00  0.00000000E+00  0.00000000E+00
  0.00000000E+00  0.00000000E+00  0.00000000E+00
  0.00000000E+00  0.00000000E+00  0.00000000E+00
  0.00000000E+00  0.00000000E+00  0.00000000E+00
  0.00000000E+00  0.00000000E+00  0.00000000E+00
  0.00000000E+00  0.00000000E+00  0.00000000E+00
  0.00000000E+00  0.00000000E+00  0.00000000E+00
  0.00000000E+00  0.00000000E+00  0.00000000E+00
