C H                                     
   1.00000000000000     
    40.0000000000000000    0.0000000000000000    0.0000000000000000
     0.0000000000000000   40.0000000000000000    0.0000000000000000
     0.0000000000000000    0.0000000000000000   40.0000000000000000
   C    H 
    14    10
Selective dynamics
Direct
  0.6035420548680008  0.5302569112327404  0.5000051766290454   T   T   T
  0.6210996243157680  0.5000016937719494  0.4999963929356568   T   T   T
  0.6035435761566319  0.4697455527902505  0.4999897324934892   T   T   T
  0.5687184827899330  0.4696056896336955  0.4999923823317900   T   T   T
  0.5507297220079366  0.4999992214746669  0.5000023237613078   T   T   T
  0.5687162257527731  0.5303940521667840  0.5000076861824994   T   T   T
  0.5152724711382177  0.4999977989430349  0.5000067561554502   T   T   T
  0.4847272867049099  0.4999966023783102  0.5000091248083081   T   T   T
  0.4492697019411054  0.4999975034301940  0.5000062230657676   T   T   T
  0.4312824506773296  0.4696038816913131  0.5000104964202947   T   T   T
  0.3964549855004975  0.4697450388318956  0.5000065434238650   T   T   T
  0.3789013236168657  0.5000016010524675  0.4999964207423133   T   T   T
  0.3964578837158257  0.5302559760689078  0.4999906463644379   T   T   T
  0.4312847995841480  0.5303927181066044  0.4999952536596695   T   T   T
  0.5549693109596561  0.5539268370366202  0.5000121739025190   T   T   T
  0.4450310857311024  0.5539255962588427  0.4999924500606809   T   T   T
  0.3828903414773279  0.5539148008802357  0.4999854503967427   T   T   T
  0.3516482180933949  0.5000026522520358  0.4999937999271964   T   T   T
  0.3828855102578075  0.4460876745333024  0.5000083120761758   T   T   T
  0.4450269020522910  0.4460705192715437  0.5000154156249366   T   T   T
  0.5549720720515197  0.4460718324605892  0.4999898909204106   T   T   T
  0.6171132860253792  0.4460881029536949  0.4999852466046519   T   T   T
  0.6483517969481554  0.5000026694663475  0.4999950123242414   T   T   T
  0.6171098876334540  0.5539150733139735  0.5000080891885261   T   T   T
 
  0.00000000E+00  0.00000000E+00  0.00000000E+00
  0.00000000E+00  0.00000000E+00  0.00000000E+00
  0.00000000E+00  0.00000000E+00  0.00000000E+00
  0.00000000E+00  0.00000000E+00  0.00000000E+00
  0.00000000E+00  0.00000000E+00  0.00000000E+00
  0.00000000E+00  0.00000000E+00  0.00000000E+00
  0.00000000E+00  0.00000000E+00  0.00000000E+00
  0.00000000E+00  0.00000000E+00  0.00000000E+00
  0.00000000E+00  0.00000000E+00  0.00000000E+00
  0.00000000E+00  0.00000000E+00  0.00000000E+00
  0.00000000E+00  0.00000000E+00  0.00000000E+00
  0.00000000E+00  0.00000000E+00  0.00000000E+00
  0.00000000E+00  0.00000000E+00  0.00000000E+00
  0.00000000E+00  0.00000000E+00  0.00000000E+00
  0.00000000E+00  0.00000000E+00  0.00000000E+00
  0.00000000E+00  0.00000000E+00  0.00000000E+00
  0.00000000E+00  0.00000000E+00  0.00000000E+00
  0.00000000E+00  0.00000000E+00  0.00000000E+00
  0.00000000E+00  0.00000000E+00  0.00000000E+00
  0.00000000E+00  0.00000000E+00  0.00000000E+00
  0.00000000E+00  0.00000000E+00  0.00000000E+00
  0.00000000E+00  0.00000000E+00  0.00000000E+00
  0.00000000E+00  0.00000000E+00  0.00000000E+00
  0.00000000E+00  0.00000000E+00  0.00000000E+00
