C F O H                                 
   1.00000000000000     
    40.0000000000000000    0.0000000000000000    0.0000000000000000
     0.0000000000000000   40.0000000000000000    0.0000000000000000
     0.0000000000000000    0.0000000000000000   40.0000000000000000
   C    F    O    H 
     8     1     1     7
Selective dynamics
Direct
  0.5101055617050878  0.5234003509185124  0.5000050548155835   T   T   T
  0.5448859006584729  0.5239953407910861  0.5000088079368828   T   T   T
  0.5624197191843621  0.4937353262968170  0.5000057025761765   T   T   T
  0.5458351233719984  0.4629143224673331  0.5000023710935361   T   T   T
  0.5111468802860560  0.4623658599436151  0.4999994568014371   T   T   T
  0.4916192186809647  0.4925843319953794  0.4999991465859926   T   T   T
  0.4557165452882522  0.4908921285343445  0.4999943588255241   T   T   T
  0.4360000588637846  0.5235075564559826  0.4999940443230376   T   T   T
  0.5972821187245877  0.4943068435175541  0.5000057131198106   T   T   T
  0.4395623973082782  0.4631178811290774  0.4999929045587666   T   T   T
  0.4413936834787842  0.5391931352121918  0.5220964115214621   T   T   T
  0.4414012664110646  0.5391986648301611  0.4778974299251536   T   T   T
  0.4092411817423347  0.5175096234757377  0.4999895779044186   T   T   T
  0.4976367460145246  0.4386905119131889  0.4999959170911587   T   T   T
  0.5603638800742792  0.4397930414184218  0.5000008233126120   T   T   T
  0.5585977139294438  0.5475881867768455  0.5000104653454842   T   T   T
  0.4967920042777242  0.5472068943237796  0.5000028142629677   T   T   T
 
  0.00000000E+00  0.00000000E+00  0.00000000E+00
  0.00000000E+00  0.00000000E+00  0.00000000E+00
  0.00000000E+00  0.00000000E+00  0.00000000E+00
  0.00000000E+00  0.00000000E+00  0.00000000E+00
  0.00000000E+00  0.00000000E+00  0.00000000E+00
  0.00000000E+00  0.00000000E+00  0.00000000E+00
  0.00000000E+00  0.00000000E+00  0.00000000E+00
  0.00000000E+00  0.00000000E+00  0.00000000E+00
  0.00000000E+00  0.00000000E+00  0.00000000E+00
  0.00000000E+00  0.00000000E+00  0.00000000E+00
  0.00000000E+00  0.00000000E+00  0.00000000E+00
  0.00000000E+00  0.00000000E+00  0.00000000E+00
  0.00000000E+00  0.00000000E+00  0.00000000E+00
  0.00000000E+00  0.00000000E+00  0.00000000E+00
  0.00000000E+00  0.00000000E+00  0.00000000E+00
  0.00000000E+00  0.00000000E+00  0.00000000E+00
  0.00000000E+00  0.00000000E+00  0.00000000E+00
