C O H                                   
   1.00000000000000     
    40.0000000000000000    0.0000000000000000    0.0000000000000000
     0.0000000000000000   40.0000000000000000    0.0000000000000000
     0.0000000000000000    0.0000000000000000   40.0000000000000000
   C    O    H 
     7     1     8
Selective dynamics
Direct
  0.4985678726995955  0.5229403500211475  0.4999990000000025   T   T   T
  0.4642903582121088  0.5294487181634335  0.4999990000000025   T   T   T
  0.4411102184503284  0.5035636715111582  0.5000000000000000   T   T   T
  0.4524893150370580  0.4705648935390085  0.5000009999999975   T   T   T
  0.4864576488319898  0.4636025458559904  0.5000009999999975   T   T   T
  0.5096072956526262  0.4898174833067176  0.5000000000000000   T   T   T
  0.5671469747921797  0.5063657167850938  0.5000000000000000   T   T   T
  0.5424375758308332  0.4804667903509093  0.5000000000000000   T   T   T
  0.5649489621909106  0.5219364020585280  0.4776447676999606   T   T   T
  0.5649479621909131  0.5219364020585280  0.5223552323000396   T   T   T
  0.5911442735139799  0.4935961956496602  0.5000009999999975   T   T   T
  0.4956111987267999  0.4380841927754234  0.5000020000000021   T   T   T
  0.4347608855640590  0.4500411241230631  0.5000020000000021   T   T   T
  0.4145369735605644  0.5088831417674767  0.5000000000000000   T   T   T
  0.4558339766594165  0.5552186490885275  0.4999979999999979   T   T   T
  0.5161085080866294  0.5435337229453557  0.4999979999999979   T   T   T
 
  0.00000000E+00  0.00000000E+00  0.00000000E+00
  0.00000000E+00  0.00000000E+00  0.00000000E+00
  0.00000000E+00  0.00000000E+00  0.00000000E+00
  0.00000000E+00  0.00000000E+00  0.00000000E+00
  0.00000000E+00  0.00000000E+00  0.00000000E+00
  0.00000000E+00  0.00000000E+00  0.00000000E+00
  0.00000000E+00  0.00000000E+00  0.00000000E+00
  0.00000000E+00  0.00000000E+00  0.00000000E+00
  0.00000000E+00  0.00000000E+00  0.00000000E+00
  0.00000000E+00  0.00000000E+00  0.00000000E+00
  0.00000000E+00  0.00000000E+00  0.00000000E+00
  0.00000000E+00  0.00000000E+00  0.00000000E+00
  0.00000000E+00  0.00000000E+00  0.00000000E+00
  0.00000000E+00  0.00000000E+00  0.00000000E+00
  0.00000000E+00  0.00000000E+00  0.00000000E+00
  0.00000000E+00  0.00000000E+00  0.00000000E+00
