C O H                                   
   1.00000000000000     
    40.0000000000000000    0.0000000000000000    0.0000000000000000
     0.0000000000000000   40.0000000000000000    0.0000000000000000
     0.0000000000000000    0.0000000000000000   40.0000000000000000
   C    O    H 
     9     1    10
Selective dynamics
Direct
  0.5068258273663133  0.5241664728753150  0.4997438945507895   T   T   T
  0.4720592690868273  0.5244228568687817  0.4995698010716438   T   T   T
  0.4530049953374728  0.4946122332189091  0.4995370498062712   T   T   T
  0.4711397987757593  0.4642008237937461  0.4997021685488718   T   T   T
  0.5057866393562023  0.4633701686124070  0.4998703924793446   T   T   T
  0.5254681756184567  0.4934360320579074  0.4999355740698732   T   T   T
  0.5613607198019963  0.4918919959371522  0.5000491553598039   T   T   T
  0.5811299115837656  0.5244499658836901  0.5000824591796089   T   T   T
  0.4153658771030990  0.4949751030865457  0.5004523585343819   T   T   T
  0.5776657752751220  0.4639265830288579  0.5001296977032794   T   T   T
  0.6079432945626380  0.5186332913895981  0.5002085505474980   T   T   T
  0.5756662739682170  0.5401638667882622  0.5221322640706845   T   T   T
  0.5758569730589542  0.5400835170647795  0.4779292266039548   T   T   T
  0.5189964459188943  0.4394954947501404  0.4998225047957874   T   T   T
  0.4572785572082623  0.4405840945627304  0.4995584359622498   T   T   T
  0.4054586997839564  0.4919420013571738  0.5260804074215955   T   T   T
  0.4052418129947668  0.5186333291935199  0.4907474687978066   T   T   T
  0.4046676377659253  0.4745030059207025  0.4854641264152448   T   T   T
  0.4589798029481287  0.5484806236875954  0.4993680101510591   T   T   T
  0.5201035124852496  0.5480295399221617  0.4996184539302391   T   T   T
 
  0.00000000E+00  0.00000000E+00  0.00000000E+00
  0.00000000E+00  0.00000000E+00  0.00000000E+00
  0.00000000E+00  0.00000000E+00  0.00000000E+00
  0.00000000E+00  0.00000000E+00  0.00000000E+00
  0.00000000E+00  0.00000000E+00  0.00000000E+00
  0.00000000E+00  0.00000000E+00  0.00000000E+00
  0.00000000E+00  0.00000000E+00  0.00000000E+00
  0.00000000E+00  0.00000000E+00  0.00000000E+00
  0.00000000E+00  0.00000000E+00  0.00000000E+00
  0.00000000E+00  0.00000000E+00  0.00000000E+00
  0.00000000E+00  0.00000000E+00  0.00000000E+00
  0.00000000E+00  0.00000000E+00  0.00000000E+00
  0.00000000E+00  0.00000000E+00  0.00000000E+00
  0.00000000E+00  0.00000000E+00  0.00000000E+00
  0.00000000E+00  0.00000000E+00  0.00000000E+00
  0.00000000E+00  0.00000000E+00  0.00000000E+00
  0.00000000E+00  0.00000000E+00  0.00000000E+00
  0.00000000E+00  0.00000000E+00  0.00000000E+00
  0.00000000E+00  0.00000000E+00  0.00000000E+00
  0.00000000E+00  0.00000000E+00  0.00000000E+00
