!PBE0 def2-SV(p) Opt Freq d3 TightSCF SlowConv RIJCOSX defgrid2
 
%pal
nprocs 4
end
 
%scf
MaxIter 1500
end
 
%maxcore 3000
 

 
* xyz 1 2
C    -1.2081014    0.6404365    0.0039720 
C    -0.0180421    1.3711864    0.0040863 
C     1.2149467    0.7440125   -0.0993567 
C     1.2080997   -0.6404235   -0.0038991 
C     0.0180471   -1.3711824   -0.0040422 
C    -1.2149468   -0.7440023    0.0994599 
H    -2.1345220   -1.3064644    0.1095729 
H     0.0418960   -2.4445280   -0.1631680 
H     2.1510390   -1.1506237    0.1675234 
H     2.1345222    1.3064738   -0.1094991 
H    -0.0418768    2.4445130    0.1630137 
H    -2.1510626    1.1506692   -0.1675449
*
