C N O H                                 
   1.00000000000000     
    40.0000000000000000    0.0000000000000000    0.0000000000000000
     0.0000000000000000   40.0000000000000000    0.0000000000000000
     0.0000000000000000    0.0000000000000000   40.0000000000000000
   C    N    O    H 
     7     1     1     7
Selective dynamics
Direct
  0.5160496126141589  0.4676567850324572  0.5000000000000000   T   T   T
  0.5496968501783295  0.4741121577936335  0.5000000000000000   T   T   T
  0.5610086916435275  0.5074608810932710  0.5000000000000000   T   T   T
  0.5384417740884853  0.5344303619512355  0.5000000000000000   T   T   T
  0.5047152630320318  0.5284287357982350  0.5000000000000000   T   T   T
  0.4928833671986355  0.4946768115743760  0.5000000000000000   T   T   T
  0.4584699682941940  0.4869260072669533  0.5000000000000000   T   T   T
  0.4363581821187478  0.5114704820727535  0.5000000000000000   T   T   T
  0.4053554577762056  0.4988057491792403  0.5000009999999975   T   T   T
  0.3904647114238385  0.5180824092333891  0.5000009999999975   T   T   T
  0.4500057177866769  0.4610599822853252  0.5000000000000000   T   T   T
  0.4867818370999185  0.5486661907499459  0.5000000000000000   T   T   T
  0.5478665785963425  0.5597800791489109  0.5000000000000000   T   T   T
  0.5876326859307245  0.5123797802486747  0.4999990000000025   T   T   T
  0.5675767408053398  0.4538183833930247  0.4999990000000025   T   T   T
  0.5066935614128407  0.4422452031785747  0.5000000000000000   T   T   T
 
  0.00000000E+00  0.00000000E+00  0.00000000E+00
  0.00000000E+00  0.00000000E+00  0.00000000E+00
  0.00000000E+00  0.00000000E+00  0.00000000E+00
  0.00000000E+00  0.00000000E+00  0.00000000E+00
  0.00000000E+00  0.00000000E+00  0.00000000E+00
  0.00000000E+00  0.00000000E+00  0.00000000E+00
  0.00000000E+00  0.00000000E+00  0.00000000E+00
  0.00000000E+00  0.00000000E+00  0.00000000E+00
  0.00000000E+00  0.00000000E+00  0.00000000E+00
  0.00000000E+00  0.00000000E+00  0.00000000E+00
  0.00000000E+00  0.00000000E+00  0.00000000E+00
  0.00000000E+00  0.00000000E+00  0.00000000E+00
  0.00000000E+00  0.00000000E+00  0.00000000E+00
  0.00000000E+00  0.00000000E+00  0.00000000E+00
  0.00000000E+00  0.00000000E+00  0.00000000E+00
  0.00000000E+00  0.00000000E+00  0.00000000E+00
