C O H                                   
   1.00000000000000     
    40.0000000000000000    0.0000000000000000    0.0000000000000000
     0.0000000000000000   40.0000000000000000    0.0000000000000000
     0.0000000000000000    0.0000000000000000   40.0000000000000000
   C    O    H 
     7     1     8
Selective dynamics
Direct
  0.4981664354152051  0.5243138584026645  0.4999990000000025   T   T   T
  0.4644770244823363  0.5300816688379953  0.4999990000000025   T   T   T
  0.4415064138272500  0.5030723791107852  0.5000000000000000   T   T   T
  0.4527584149909692  0.4697271301718361  0.5000009999999975   T   T   T
  0.4863060760467782  0.4632107421166174  0.5000009999999975   T   T   T
  0.5094210782095381  0.4905541174118399  0.5000000000000000   T   T   T
  0.5675518877151161  0.5063644662822204  0.5000000000000000   T   T   T
  0.5409010715611065  0.4816547849643447  0.5000000000000000   T   T   T
  0.5657024271535716  0.5215947407909249  0.4775071618942927   T   T   T
  0.5657014271535741  0.5215947407909249  0.5224928381057072   T   T   T
  0.5903725092768662  0.4917716652927516  0.5000009999999975   T   T   T
  0.4963540210832948  0.4380928650014579  0.5000020000000021   T   T   T
  0.4348924650793163  0.4494386020814116  0.5000020000000021   T   T   T
  0.4149674100355083  0.5083044949732652  0.5000000000000000   T   T   T
  0.4551028364175914  0.5554624460731119  0.4999979999999979   T   T   T
  0.5158185015519638  0.5447612976978622  0.4999979999999979   T   T   T
 
  0.00000000E+00  0.00000000E+00  0.00000000E+00
  0.00000000E+00  0.00000000E+00  0.00000000E+00
  0.00000000E+00  0.00000000E+00  0.00000000E+00
  0.00000000E+00  0.00000000E+00  0.00000000E+00
  0.00000000E+00  0.00000000E+00  0.00000000E+00
  0.00000000E+00  0.00000000E+00  0.00000000E+00
  0.00000000E+00  0.00000000E+00  0.00000000E+00
  0.00000000E+00  0.00000000E+00  0.00000000E+00
  0.00000000E+00  0.00000000E+00  0.00000000E+00
  0.00000000E+00  0.00000000E+00  0.00000000E+00
  0.00000000E+00  0.00000000E+00  0.00000000E+00
  0.00000000E+00  0.00000000E+00  0.00000000E+00
  0.00000000E+00  0.00000000E+00  0.00000000E+00
  0.00000000E+00  0.00000000E+00  0.00000000E+00
  0.00000000E+00  0.00000000E+00  0.00000000E+00
  0.00000000E+00  0.00000000E+00  0.00000000E+00
