C O S H                                 
   1.00000000000000     
    40.0000000000000000    0.0000000000000000    0.0000000000000000
     0.0000000000000000   40.0000000000000000    0.0000000000000000
     0.0000000000000000    0.0000000000000000   40.0000000000000000
   C    O    S    H 
     7     1     1     8
Selective dynamics
Direct
  0.5516602961625046  0.5014462906395357  0.4977661650429722   T   T   T
  0.5365994035391025  0.5331602952790628  0.4991763202529598   T   T   T
  0.5020354258799555  0.5362268865811584  0.5010448083896736   T   T   T
  0.4816354046272814  0.5076609540774153  0.5019379324992986   T   T   T
  0.4964741200582334  0.4759385810896906  0.5010011006298751   T   T   T
  0.5312416441636522  0.4730399747104137  0.4987603654494950   T   T   T
  0.4263503576913140  0.4847785605166370  0.5035170525519955   T   T   T
  0.4478726747710663  0.5133578000021746  0.5036210533770169   T   T   T
  0.5955443242952603  0.4957269267697511  0.4955778151526640   T   T   T
  0.5423554131427646  0.4481634763697054  0.4976388980411320   T   T   T
  0.4813850052912096  0.4533068024806627  0.5016915352495714   T   T   T
  0.4008335924917073  0.4946283206504936  0.5043487255080001   T   T   T
  0.4296569444400535  0.4698427764057827  0.4806061080666363   T   T   T
  0.4307097646006594  0.4688165388607052  0.5255428934588454   T   T   T
  0.4903356625589940  0.5608233311804993  0.5018998905050444   T   T   T
  0.5519813547589637  0.5556657723797289  0.4987612097818139   T   T   T
  0.6033266115272613  0.5274177120065949  0.4871061260430112   T   T   T
 
  0.00000000E+00  0.00000000E+00  0.00000000E+00
  0.00000000E+00  0.00000000E+00  0.00000000E+00
  0.00000000E+00  0.00000000E+00  0.00000000E+00
  0.00000000E+00  0.00000000E+00  0.00000000E+00
  0.00000000E+00  0.00000000E+00  0.00000000E+00
  0.00000000E+00  0.00000000E+00  0.00000000E+00
  0.00000000E+00  0.00000000E+00  0.00000000E+00
  0.00000000E+00  0.00000000E+00  0.00000000E+00
  0.00000000E+00  0.00000000E+00  0.00000000E+00
  0.00000000E+00  0.00000000E+00  0.00000000E+00
  0.00000000E+00  0.00000000E+00  0.00000000E+00
  0.00000000E+00  0.00000000E+00  0.00000000E+00
  0.00000000E+00  0.00000000E+00  0.00000000E+00
  0.00000000E+00  0.00000000E+00  0.00000000E+00
  0.00000000E+00  0.00000000E+00  0.00000000E+00
  0.00000000E+00  0.00000000E+00  0.00000000E+00
  0.00000000E+00  0.00000000E+00  0.00000000E+00
