!PBE0 def2-SV(p) Opt Freq d3 TightSCF SlowConv RIJCOSX defgrid2
 
%pal
nprocs 4
end
 
%scf
MaxIter 1500
end
 
%maxcore 3000
 

 
* xyz 0 1
C    -0.0942814   -1.0308240    0.0018320 
C    -1.4643482   -1.1946152    0.0048312 
C    -2.3221073   -0.0985016    0.0061783 
C    -1.7601011    1.1716416    0.0044435 
C    -0.3887299    1.3396421    0.0014312 
C     0.4768583    0.2440007    0.0001127 
C     1.9138722    0.4810281   -0.0020800 
C     2.8816001   -0.4336192    0.0000524 
C     4.3371921   -0.1115412   -0.0024456 
H     4.8180682   -0.5400141    0.8772026 
H     4.8162235   -0.5454042   -0.8804714 
H     4.5015122    0.9633630   -0.0059243 
H     2.6474216   -1.4893597    0.0038481 
H     2.1958988    1.5281396   -0.0055711 
H     0.0244840    2.3392108    0.0008648 
H    -2.4041151    2.0403113    0.0059200 
C    -3.8077764   -0.2954896   -0.0070604 
H    -4.3255156    0.6359834    0.2081560 
H    -4.1290289   -0.6497269   -0.9869274 
H    -4.1017023   -1.0421098    0.7286295 
H    -1.8823394   -2.1919381    0.0066194 
H     0.5387687   -1.9050884    0.0014560
*
