!PBE0 def2-SV(p) Opt Freq d3 TightSCF SlowConv RIJCOSX defgrid2
 
%pal
nprocs 4
end
 
%scf
MaxIter 1500
end
 
%maxcore 3000
 

 
* xyz 0 1
C     0.4906660   -1.2845553   -0.0006995 
C     1.3977860   -0.2201893   -0.0003589 
C     0.8708401    1.0737181   -0.0003888 
C    -0.4906432    1.2845114   -0.0005908 
C    -1.3977692    0.2201421   -0.0007094 
C    -0.8708272   -1.0737608   -0.0008682 
H    -1.5337583   -1.9256873   -0.0011625 
C    -2.8232198    0.5088464   -0.0005580 
C    -3.8231191   -0.3712805    0.0009414 
C    -5.2661712    0.0017886    0.0012736 
H    -5.7614234   -0.4136420   -0.8765819 
H    -5.3930083    1.0816134   -0.0000793 
H    -5.7603829   -0.4113109    0.8808159 
H    -3.6255601   -1.4344602    0.0021023 
H    -3.0679428    1.5652525   -0.0015394 
H    -0.8699728    2.2975498   -0.0005641 
H     1.5337798    1.9256357   -0.0002203 
C     2.8232489   -0.5088354    0.0000928 
C     3.8230941    0.3713535    0.0004803 
C     5.2661763   -0.0016088    0.0010590 
H     5.7606600    0.4132399    0.8796205 
H     5.7610826    0.4121662   -0.8777767 
H     5.3931060   -1.0814219    0.0017301 
H     3.6254901    1.4345269    0.0003592 
H     3.0680431   -1.5652256    0.0002045 
H     0.8699838   -2.2975987   -0.0008033
*
