!PBE0 def2-SV(p) Opt Freq d3 TightSCF SlowConv RIJCOSX defgrid2
 
%pal
nprocs 4
end
 
%scf
MaxIter 1500
end
 
%maxcore 3000
 

 
* xyz 0 1
N    -0.0092727    0.0335381    0.2421404 
C    -1.3819199   -0.0541965    0.6920732 
C    -2.4562669    0.3037949   -0.3461421 
H    -3.4440495    0.1606501    0.0842496 
H    -2.3702698   -0.3279387   -1.2276681 
H    -2.3601479    1.3416180   -0.6562472 
H    -1.5455578   -1.0776515    1.0390920 
H    -1.4906826    0.6103122    1.5556041 
C     0.4088024   -1.0560407   -0.6249622 
C     1.1230338   -2.1442730    0.1772062 
H     0.4586506   -2.5541561    0.9333393 
H     1.4426875   -2.9489434   -0.4809181 
H     1.9926438   -1.7269136    0.6765108 
H    -0.4477487   -1.5024132   -1.1493118 
H     1.0897836   -0.6717470   -1.3886460 
C     0.4102973    1.3533312   -0.1847277 
C     1.8967034    1.5734963    0.0917336 
H     2.5076917    0.8892163   -0.4908750 
H     2.1016147    1.4057929    1.1453598 
H     2.1757071    2.5922565   -0.1666261 
H     0.2079454    1.5337855   -1.2557781 
H    -0.1612500    2.0862179    0.3901756
*
