C O S H                                 
   1.00000000000000     
    40.0000000000000000    0.0000000000000000    0.0000000000000000
     0.0000000000000000   40.0000000000000000    0.0000000000000000
     0.0000000000000000    0.0000000000000000   40.0000000000000000
   C    O    S    H 
     7     1     1     8
Selective dynamics
Direct
  0.5513094564685874  0.5014556518669042  0.4977936637186157   T   T   T
  0.5363678570251448  0.5329834713234548  0.4991669080333193   T   T   T
  0.5019956688156447  0.5359656385431917  0.5010444091415127   T   T   T
  0.4817507076719406  0.5075535899950695  0.5019030593907579   T   T   T
  0.4964760049789287  0.4760368777370793  0.5009435175884854   T   T   T
  0.5310612334063564  0.4732173883089998  0.4987411848939637   T   T   T
  0.4267680675211148  0.4848926858484783  0.5035221899987702   T   T   T
  0.4483135485143763  0.5130564389035499  0.5035996493233057   T   T   T
  0.5948883578692136  0.4958291376778979  0.4955811497544352   T   T   T
  0.5421775340121697  0.4485132436518074  0.4976489055679666   T   T   T
  0.4815183436925138  0.4535162213802381  0.5016335268116050   T   T   T
  0.4014776678741748  0.4948471963680787  0.5043624146238737   T   T   T
  0.4299803118200717  0.4700564277356786  0.4807773098567772   T   T   T
  0.4310684935971227  0.4690382538492789  0.5253786779532772   T   T   T
  0.4903826982348980  0.5604370973864174  0.5018972931954612   T   T   T
  0.5515906285986046  0.5553932131655166  0.4987118813291729   T   T   T
  0.6028714198991142  0.5272084662583844  0.4872922588187059   T   T   T
 
  0.00000000E+00  0.00000000E+00  0.00000000E+00
  0.00000000E+00  0.00000000E+00  0.00000000E+00
  0.00000000E+00  0.00000000E+00  0.00000000E+00
  0.00000000E+00  0.00000000E+00  0.00000000E+00
  0.00000000E+00  0.00000000E+00  0.00000000E+00
  0.00000000E+00  0.00000000E+00  0.00000000E+00
  0.00000000E+00  0.00000000E+00  0.00000000E+00
  0.00000000E+00  0.00000000E+00  0.00000000E+00
  0.00000000E+00  0.00000000E+00  0.00000000E+00
  0.00000000E+00  0.00000000E+00  0.00000000E+00
  0.00000000E+00  0.00000000E+00  0.00000000E+00
  0.00000000E+00  0.00000000E+00  0.00000000E+00
  0.00000000E+00  0.00000000E+00  0.00000000E+00
  0.00000000E+00  0.00000000E+00  0.00000000E+00
  0.00000000E+00  0.00000000E+00  0.00000000E+00
  0.00000000E+00  0.00000000E+00  0.00000000E+00
  0.00000000E+00  0.00000000E+00  0.00000000E+00
