!PBE0 def2-SV(p) Opt Freq d3 TightSCF SlowConv RIJCOSX defgrid2
 
%pal
nprocs 4
end
 
%scf
MaxIter 1500
end
 
%maxcore 3000
 

 
* xyz -1 2
C    -0.0259354    1.2044867    0.0001569 
C     1.3437888    1.2221265    0.0001720 
C     2.0449705    0.0202446   -0.0000083 
C     1.3852655   -1.2089531   -0.0001479 
C     0.0191474   -1.2240594   -0.0001211 
C    -0.7571537   -0.0236315   -0.0000131 
C    -2.1723007   -0.0960375   -0.0001074 
O    -2.8210247   -1.1950942   -0.0000537 
C    -2.9614765    1.2138255   -0.0003646 
H    -2.7277616    1.8043435    0.8853971 
H    -2.7272766    1.8042440   -0.8860652 
H    -4.0250700    0.9832613   -0.0006385 
H    -0.5208940   -2.1614239   -0.0002303 
H     1.9622093   -2.1236334   -0.0002836 
F     3.4337982    0.0453554   -0.0000389 
H     1.8929445    2.1539702    0.0003210 
H    -0.5588392    2.1431051    0.0003165
*
