C H                                     
   1.00000000000000     
    40.0000000000000000    0.0000000000000000    0.0000000000000000
     0.0000000000000000   40.0000000000000000    0.0000000000000000
     0.0000000000000000    0.0000000000000000   40.0000000000000000
   C    H 
     6     6
Selective dynamics
Direct
  0.4694424371913311  0.5166453568358194  0.5000000000000000   T   T   T
  0.4991297840345259  0.5347916899422920  0.5000000000000000   T   T   T
  0.5296932276988749  0.5181446828000518  0.5000000000000000   T   T   T
  0.5305575628086691  0.4833546431641805  0.5000000000000000   T   T   T
  0.5008702159654741  0.4652083100577081  0.5000000000000000   T   T   T
  0.4703067723011250  0.4818553171999483  0.5000000000000000   T   T   T
  0.4471850064134784  0.4677209344816046  0.5000000000000000   T   T   T
  0.5015478441411748  0.4381160714887676  0.5000000000000000   T   T   T
  0.5543665769883175  0.4704003550242576  0.4999990000000025   T   T   T
  0.5528149935865287  0.5322790655183953  0.5000000000000000   T   T   T
  0.4984521558588322  0.5618839285112324  0.5000000000000000   T   T   T
  0.4456334230116825  0.5295996449757496  0.5000000000000000   T   T   T
 
  0.00000000E+00  0.00000000E+00  0.00000000E+00
  0.00000000E+00  0.00000000E+00  0.00000000E+00
  0.00000000E+00  0.00000000E+00  0.00000000E+00
  0.00000000E+00  0.00000000E+00  0.00000000E+00
  0.00000000E+00  0.00000000E+00  0.00000000E+00
  0.00000000E+00  0.00000000E+00  0.00000000E+00
  0.00000000E+00  0.00000000E+00  0.00000000E+00
  0.00000000E+00  0.00000000E+00  0.00000000E+00
  0.00000000E+00  0.00000000E+00  0.00000000E+00
  0.00000000E+00  0.00000000E+00  0.00000000E+00
  0.00000000E+00  0.00000000E+00  0.00000000E+00
  0.00000000E+00  0.00000000E+00  0.00000000E+00
