C O H                                   
   1.00000000000000     
    40.0000000000000000    0.0000000000000000    0.0000000000000000
     0.0000000000000000   40.0000000000000000    0.0000000000000000
     0.0000000000000000    0.0000000000000000   40.0000000000000000
   C    O    H 
     4     1     4
Selective dynamics
Direct
  0.4857232708433301  0.4724670290926269  0.5000000000000000   T   T   T
  0.5184768677609171  0.4820659402751843  0.5000000000000000   T   T   T
  0.5184758677609125  0.5179350597248131  0.5000000000000000   T   T   T
  0.4857212708433281  0.5275319709073685  0.5000000000000000   T   T   T
  0.4652247156533349  0.4999990000000025  0.5000000000000000   T   T   T
  0.4731442795104002  0.5515245754005278  0.5000000000000000   T   T   T
  0.5400417240587032  0.5343868223988295  0.4999990000000025   T   T   T
  0.5400437240586982  0.4656161776011700  0.5000000000000000   T   T   T
  0.4731472795103997  0.4484734245994701  0.5000000000000000   T   T   T
 
  0.00000000E+00  0.00000000E+00  0.00000000E+00
  0.00000000E+00  0.00000000E+00  0.00000000E+00
  0.00000000E+00  0.00000000E+00  0.00000000E+00
  0.00000000E+00  0.00000000E+00  0.00000000E+00
  0.00000000E+00  0.00000000E+00  0.00000000E+00
  0.00000000E+00  0.00000000E+00  0.00000000E+00
  0.00000000E+00  0.00000000E+00  0.00000000E+00
  0.00000000E+00  0.00000000E+00  0.00000000E+00
  0.00000000E+00  0.00000000E+00  0.00000000E+00
