C O H                                   
   1.00000000000000     
    40.0000000000000000    0.0000000000000000    0.0000000000000000
     0.0000000000000000   40.0000000000000000    0.0000000000000000
     0.0000000000000000    0.0000000000000000   40.0000000000000000
   C    O    H 
    13     1    10
Selective dynamics
Direct
  0.4380534527047359  0.5312293259112195  0.5025271077761175   T   T   T
  0.4067862273019713  0.5162259967048115  0.4999890528266064   T   T   T
  0.4680581831918076  0.5131823448197750  0.4961145770892088   T   T   T
  0.4642355198894705  0.4794428253433551  0.4855608510095877   T   T   T
  0.4328673950135382  0.4646221951479035  0.4827001622651892   T   T   T
  0.4036477211098344  0.4826357049062295  0.4902425942780937   T   T   T
  0.5001005454307190  0.5311605960720840  0.4982824648331530   T   T   T
  0.5320259597091450  0.5133076427322294  0.5023211575648574   T   T   T
  0.5621563105328136  0.5303876426780647  0.4940909492892658   T   T   T
  0.5933327790721776  0.5155887189073169  0.4983777646601339   T   T   T
  0.5962522018148775  0.4832379303079222  0.5117355162197370   T   T   T
  0.5668989060084115  0.4662823281263400  0.5210069304398885   T   T   T
  0.5356251990150582  0.4808617333066536  0.5164244384733010   T   T   T
  0.5002052552277405  0.5632937791368136  0.4966502155944568   T   T   T
  0.4310278701018362  0.4387427523681566  0.4741275363558159   T   T   T
  0.3791082044599605  0.4709074513887401  0.4881841526765527   T   T   T
  0.4405888728572478  0.5574614957939801  0.5095254375363183   T   T   T
  0.3843604889048819  0.5307762464507420  0.5056812523764620   T   T   T
  0.4862821843087985  0.4650287154580823  0.4785350570839881   T   T   T
  0.5134662281998601  0.4674093896389238  0.5248521198967993   T   T   T
  0.6207196824862393  0.4716971696959007  0.5152073583420034   T   T   T
  0.5685576899606559  0.4414694880883232  0.5323221497978139   T   T   T
  0.5597904267447049  0.5557133750361771  0.4842709136865295   T   T   T
  0.6158546959535016  0.5293371519802363  0.4912702399281343   T   T   T
 
  0.00000000E+00  0.00000000E+00  0.00000000E+00
  0.00000000E+00  0.00000000E+00  0.00000000E+00
  0.00000000E+00  0.00000000E+00  0.00000000E+00
  0.00000000E+00  0.00000000E+00  0.00000000E+00
  0.00000000E+00  0.00000000E+00  0.00000000E+00
  0.00000000E+00  0.00000000E+00  0.00000000E+00
  0.00000000E+00  0.00000000E+00  0.00000000E+00
  0.00000000E+00  0.00000000E+00  0.00000000E+00
  0.00000000E+00  0.00000000E+00  0.00000000E+00
  0.00000000E+00  0.00000000E+00  0.00000000E+00
  0.00000000E+00  0.00000000E+00  0.00000000E+00
  0.00000000E+00  0.00000000E+00  0.00000000E+00
  0.00000000E+00  0.00000000E+00  0.00000000E+00
  0.00000000E+00  0.00000000E+00  0.00000000E+00
  0.00000000E+00  0.00000000E+00  0.00000000E+00
  0.00000000E+00  0.00000000E+00  0.00000000E+00
  0.00000000E+00  0.00000000E+00  0.00000000E+00
  0.00000000E+00  0.00000000E+00  0.00000000E+00
  0.00000000E+00  0.00000000E+00  0.00000000E+00
  0.00000000E+00  0.00000000E+00  0.00000000E+00
  0.00000000E+00  0.00000000E+00  0.00000000E+00
  0.00000000E+00  0.00000000E+00  0.00000000E+00
  0.00000000E+00  0.00000000E+00  0.00000000E+00
  0.00000000E+00  0.00000000E+00  0.00000000E+00
