C O H                                   
   1.00000000000000     
    40.0000000000000000    0.0000000000000000    0.0000000000000000
     0.0000000000000000   40.0000000000000000    0.0000000000000000
     0.0000000000000000    0.0000000000000000   40.0000000000000000
   C    O    H 
    12     1    10
Selective dynamics
Direct
  0.5334574661974961  0.4843551794855649  0.5170671485581594   T   T   T
  0.5648211790622915  0.4696077435509284  0.5174607220118793   T   T   T
  0.5920812740378664  0.4856112312765895  0.5021063965036197   T   T   T
  0.5881444099558791  0.5171384477814913  0.4868620482607539   T   T   T
  0.5571641003556148  0.5326042446156948  0.4865747010532807   T   T   T
  0.5298468407240018  0.5155972910470007  0.5009408485102422   T   T   T
  0.4701572235757218  0.5156055049092189  0.4990531222175996   T   T   T
  0.4428443615218106  0.5326160994428162  0.5134220734218462   T   T   T
  0.4118634745668157  0.5171551805688219  0.5131409964657675   T   T   T
  0.4079146028514105  0.4856263562050043  0.4978977557764141   T   T   T
  0.4351726307842549  0.4696222831817319  0.4825398229221678   T   T   T
  0.4665370778588190  0.4843646903343756  0.4829290563443522   T   T   T
  0.4999985738853459  0.5321617245075581  0.4999960518915985   T   T   T
  0.4876152103820454  0.4730819995673542  0.4699051111737975   T   T   T
  0.4316140413192017  0.4458483527628789  0.4697355945761579   T   T   T
  0.3833675763396296  0.4738249300218305  0.4974667970846420   T   T   T
  0.3905029970756851  0.5293691165285848  0.5248227626750168   T   T   T
  0.4468741972421739  0.5568821828026258  0.5250977593024319   T   T   T
  0.5531384544024053  0.5568686108627097  0.4749009531080601   T   T   T
  0.6095038146144237  0.5293456537422349  0.4751841265539765   T   T   T
  0.6166286930951389  0.4738022033180342  0.5025412214811223   T   T   T
  0.5683728000208875  0.4458342942899954  0.5302663226732990   T   T   T
  0.5123770001311002  0.4730776791968818  0.5300876074338104   T   T   T
 
  0.00000000E+00  0.00000000E+00  0.00000000E+00
  0.00000000E+00  0.00000000E+00  0.00000000E+00
  0.00000000E+00  0.00000000E+00  0.00000000E+00
  0.00000000E+00  0.00000000E+00  0.00000000E+00
  0.00000000E+00  0.00000000E+00  0.00000000E+00
  0.00000000E+00  0.00000000E+00  0.00000000E+00
  0.00000000E+00  0.00000000E+00  0.00000000E+00
  0.00000000E+00  0.00000000E+00  0.00000000E+00
  0.00000000E+00  0.00000000E+00  0.00000000E+00
  0.00000000E+00  0.00000000E+00  0.00000000E+00
  0.00000000E+00  0.00000000E+00  0.00000000E+00
  0.00000000E+00  0.00000000E+00  0.00000000E+00
  0.00000000E+00  0.00000000E+00  0.00000000E+00
  0.00000000E+00  0.00000000E+00  0.00000000E+00
  0.00000000E+00  0.00000000E+00  0.00000000E+00
  0.00000000E+00  0.00000000E+00  0.00000000E+00
  0.00000000E+00  0.00000000E+00  0.00000000E+00
  0.00000000E+00  0.00000000E+00  0.00000000E+00
  0.00000000E+00  0.00000000E+00  0.00000000E+00
  0.00000000E+00  0.00000000E+00  0.00000000E+00
  0.00000000E+00  0.00000000E+00  0.00000000E+00
  0.00000000E+00  0.00000000E+00  0.00000000E+00
  0.00000000E+00  0.00000000E+00  0.00000000E+00
