C H                                     
   1.00000000000000     
    40.0000000000000000    0.0000000000000000    0.0000000000000000
     0.0000000000000000   40.0000000000000000    0.0000000000000000
     0.0000000000000000    0.0000000000000000   40.0000000000000000
   C    H 
     8    10
Selective dynamics
Direct
  0.4701778943429318  0.4682212264332435  0.5007767301162218   T   T   T
  0.5001314093145979  0.4506508564669502  0.5000550907097434   T   T   T
  0.5300098018509019  0.4684101574298865  0.4993719062389488   T   T   T
  0.5303351224610324  0.5047391250216577  0.4997471701097638   T   T   T
  0.5629174125782654  0.5222176761883262  0.4991536965884222   T   T   T
  0.4999723059672263  0.5219155843666883  0.5003877553879548   T   T   T
  0.4697064009889758  0.5045508970321109  0.5007481089970014   T   T   T
  0.4369799544301713  0.5217614592960160  0.5009863643400863   T   T   T
  0.5603836140398784  0.5492460540321247  0.5025608868821649   T   T   T
  0.5798683289708819  0.5116993245093084  0.5181600095631396   T   T   T
  0.5754493258988091  0.5173738378570576  0.4749947624369284   T   T   T
  0.4393596636490997  0.5489860508698783  0.5023291182417893   T   T   T
  0.4215048170204199  0.5125496963314191  0.5218778913626139   T   T   T
  0.4228457593480144  0.5148919867537600  0.4782484450954385   T   T   T
  0.4998842816703899  0.5491709557365567  0.5005823962099214   T   T   T
  0.5538784651123052  0.4552295994236033  0.4986036857428147   T   T   T
  0.5002217275886878  0.4234403630925385  0.5000188946465229   T   T   T
  0.4463737147674323  0.4549441491588766  0.5013980873305144   T   T   T
 
  0.00000000E+00  0.00000000E+00  0.00000000E+00
  0.00000000E+00  0.00000000E+00  0.00000000E+00
  0.00000000E+00  0.00000000E+00  0.00000000E+00
  0.00000000E+00  0.00000000E+00  0.00000000E+00
  0.00000000E+00  0.00000000E+00  0.00000000E+00
  0.00000000E+00  0.00000000E+00  0.00000000E+00
  0.00000000E+00  0.00000000E+00  0.00000000E+00
  0.00000000E+00  0.00000000E+00  0.00000000E+00
  0.00000000E+00  0.00000000E+00  0.00000000E+00
  0.00000000E+00  0.00000000E+00  0.00000000E+00
  0.00000000E+00  0.00000000E+00  0.00000000E+00
  0.00000000E+00  0.00000000E+00  0.00000000E+00
  0.00000000E+00  0.00000000E+00  0.00000000E+00
  0.00000000E+00  0.00000000E+00  0.00000000E+00
  0.00000000E+00  0.00000000E+00  0.00000000E+00
  0.00000000E+00  0.00000000E+00  0.00000000E+00
  0.00000000E+00  0.00000000E+00  0.00000000E+00
  0.00000000E+00  0.00000000E+00  0.00000000E+00
