C O H                                   
   1.00000000000000     
    40.0000000000000000    0.0000000000000000    0.0000000000000000
     0.0000000000000000   40.0000000000000000    0.0000000000000000
     0.0000000000000000    0.0000000000000000   40.0000000000000000
   C    O    H 
    10     1    12
Selective dynamics
Direct
  0.5032515468751090  0.5305383709586006  0.4999978689537620   T   T   T
  0.4696862189838883  0.5361586945187599  0.4999958101607512   T   T   T
  0.4470832883342071  0.5087511379675107  0.4999971159131679   T   T   T
  0.4590744274177738  0.4754882349479247  0.4999994016645007   T   T   T
  0.4928524442748782  0.4702462127563588  0.5000023840311633   T   T   T
  0.5160973678624154  0.4972557056138671  0.5000019142835557   T   T   T
  0.5506296596516687  0.4894372708909977  0.5000052286912553   T   T   T
  0.5766152358554879  0.5118570394726837  0.5000017147785355   T   T   T
  0.6120290119259230  0.5019174615843187  0.5000029756144603   T   T   T
  0.3897912997650435  0.4911171677775324  0.4999968675200016   T   T   T
  0.4151110920267507  0.5169611581916069  0.4999969354416911   T   T   T
  0.6247636838975392  0.5126776280733708  0.5217466017254180   T   T   T
  0.6247623442741119  0.5126702838918118  0.4782549957662922   T   T   T
  0.6153529012707116  0.4749120063820161  0.5000071692240063   T   T   T
  0.5714253075636154  0.5384960429780422  0.4999975350934717   T   T   T
  0.5569403634072286  0.4630067258710387  0.5000079956427174   T   T   T
  0.5025113691092001  0.4449428208726389  0.5000044970302420   T   T   T
  0.4420059945488633  0.4545521735195482  0.5000004344669202   T   T   T
  0.3921495582469773  0.4758816851381144  0.5224556929909520   T   T   T
  0.3921522194791462  0.4758797268580565  0.4775389912000930   T   T   T
  0.3661883610116128  0.5044371056539222  0.4999949092476504   T   T   T
  0.4593690205347857  0.5611697945711005  0.4999943393362188   T   T   T
  0.5201592836830785  0.5516455515101859  0.4999976212231619   T   T   T
 
  0.00000000E+00  0.00000000E+00  0.00000000E+00
  0.00000000E+00  0.00000000E+00  0.00000000E+00
  0.00000000E+00  0.00000000E+00  0.00000000E+00
  0.00000000E+00  0.00000000E+00  0.00000000E+00
  0.00000000E+00  0.00000000E+00  0.00000000E+00
  0.00000000E+00  0.00000000E+00  0.00000000E+00
  0.00000000E+00  0.00000000E+00  0.00000000E+00
  0.00000000E+00  0.00000000E+00  0.00000000E+00
  0.00000000E+00  0.00000000E+00  0.00000000E+00
  0.00000000E+00  0.00000000E+00  0.00000000E+00
  0.00000000E+00  0.00000000E+00  0.00000000E+00
  0.00000000E+00  0.00000000E+00  0.00000000E+00
  0.00000000E+00  0.00000000E+00  0.00000000E+00
  0.00000000E+00  0.00000000E+00  0.00000000E+00
  0.00000000E+00  0.00000000E+00  0.00000000E+00
  0.00000000E+00  0.00000000E+00  0.00000000E+00
  0.00000000E+00  0.00000000E+00  0.00000000E+00
  0.00000000E+00  0.00000000E+00  0.00000000E+00
  0.00000000E+00  0.00000000E+00  0.00000000E+00
  0.00000000E+00  0.00000000E+00  0.00000000E+00
  0.00000000E+00  0.00000000E+00  0.00000000E+00
  0.00000000E+00  0.00000000E+00  0.00000000E+00
  0.00000000E+00  0.00000000E+00  0.00000000E+00
