C O H                                   
   1.00000000000000     
    40.0000000000000000    0.0000000000000000    0.0000000000000000
     0.0000000000000000   40.0000000000000000    0.0000000000000000
     0.0000000000000000    0.0000000000000000   40.0000000000000000
   C    O    H 
     8     1     6
Selective dynamics
Direct
  0.5175612904270679  0.4609117227881612  0.5000000000000000   T   T   T
  0.5480924061160621  0.4778701485374199  0.5000000000000000   T   T   T
  0.5494837858630888  0.5130669746775780  0.5000000000000000   T   T   T
  0.5205016104136391  0.5324202191292642  0.5000000000000000   T   T   T
  0.4894514295830703  0.5159788941322603  0.5000000000000000   T   T   T
  0.4889805163628509  0.4806829469745537  0.5000000000000000   T   T   T
  0.4365586325754620  0.4974607741106851  0.5000000000000000   T   T   T
  0.4548680281273150  0.5261239830943794  0.5000000000000000   T   T   T
  0.4564835717880058  0.4692240935013956  0.5000000000000000   T   T   T
  0.4449629674915414  0.5513710467792592  0.5000000000000000   T   T   T
  0.4098875726887812  0.4926265495288078  0.5000009999999975   T   T   T
  0.5219139405825146  0.5596466632151404  0.5000000000000000   T   T   T
  0.5738304598625277  0.5253452627453044  0.5000000000000000   T   T   T
  0.5712983195850967  0.4635559453495333  0.5000000000000000   T   T   T
  0.5161244685329862  0.4337137754362743  0.5000000000000000   T   T   T
 
  0.00000000E+00  0.00000000E+00  0.00000000E+00
  0.00000000E+00  0.00000000E+00  0.00000000E+00
  0.00000000E+00  0.00000000E+00  0.00000000E+00
  0.00000000E+00  0.00000000E+00  0.00000000E+00
  0.00000000E+00  0.00000000E+00  0.00000000E+00
  0.00000000E+00  0.00000000E+00  0.00000000E+00
  0.00000000E+00  0.00000000E+00  0.00000000E+00
  0.00000000E+00  0.00000000E+00  0.00000000E+00
  0.00000000E+00  0.00000000E+00  0.00000000E+00
  0.00000000E+00  0.00000000E+00  0.00000000E+00
  0.00000000E+00  0.00000000E+00  0.00000000E+00
  0.00000000E+00  0.00000000E+00  0.00000000E+00
  0.00000000E+00  0.00000000E+00  0.00000000E+00
  0.00000000E+00  0.00000000E+00  0.00000000E+00
  0.00000000E+00  0.00000000E+00  0.00000000E+00
