C O S H                                 
   1.00000000000000     
    40.0000000000000000    0.0000000000000000    0.0000000000000000
     0.0000000000000000   40.0000000000000000    0.0000000000000000
     0.0000000000000000    0.0000000000000000   40.0000000000000000
   C    O    S    H 
    14     2     2    14
Selective dynamics
Direct
  0.5478170810747278  0.5345661469128813  0.5070676217851647   T   T   T
  0.5420849590325106  0.5087635804859258  0.4842848540882387   T   T   T
  0.5669895467145667  0.4856472387251206  0.4776182299571398   T   T   T
  0.5978959056771358  0.4877412750927468  0.4938257962940079   T   T   T
  0.6037594194521809  0.5134589486236224  0.5167062679915748   T   T   T
  0.5787180931546428  0.5368336620135875  0.5230790673679420   T   T   T
  0.6526629186868437  0.4648969190143962  0.5014182352363946   T   T   T
  0.4521841069300534  0.5345771254757498  0.4929461754979455   T   T   T
  0.4579154481352394  0.5087636330721238  0.5157182033101131   T   T   T
  0.4330094156557562  0.4856473787852503  0.5223764793539089   T   T   T
  0.4021004074493119  0.4877498511456185  0.5061675791299968   T   T   T
  0.3962422692094672  0.5134754374593157  0.4832985112602441   T   T   T
  0.4212851358788959  0.5368542687328162  0.4769380902178402   T   T   T
  0.3473374649791979  0.4649114956831687  0.4985674232472771   T   T   T
  0.6205737940531013  0.4636764551881641  0.4855682047958687   T   T   T
  0.3794241566435169  0.4636844610250234  0.5144189551346514   T   T   T
  0.5172217691662468  0.5648172141755430  0.5184093621059562   T   T   T
  0.4827805710020093  0.5648302375903403  0.4816116705451043   T   T   T
  0.5835883802956485  0.5569132021455589  0.5406753285647871   T   T   T
  0.6274938059383713  0.5157791519712556  0.5294712129218606   T   T   T
  0.6502261988915561  0.4623491150836910  0.5285105741084847   T   T   T
  0.6655683266910448  0.4882222129156574  0.4954285597636652   T   T   T
  0.6665682172205781  0.4438197342727674  0.4913693297552950   T   T   T
  0.5627837018871178  0.4655718930782749  0.4599001823803801   T   T   T
  0.5182520043479144  0.5068583580398791  0.4715132284702265   T   T   T
  0.4164170427823534  0.5569367110713044  0.4593479799390300   T   T   T
  0.3725035196182712  0.5158049797014052  0.4705365033596313   T   T   T
  0.3497753868065665  0.4623708414473372  0.4714748757637460   T   T   T
  0.3334309580807089  0.4438299787162964  0.5086103417415303   T   T   T
  0.3344313812318624  0.4882332979783324  0.5045650923794524   T   T   T
  0.4372115315044089  0.4655641588623654  0.5400849172486125   T   T   T
  0.4817480818081848  0.5068510355144737  0.5284881462839383   T   T   T
 
  0.00000000E+00  0.00000000E+00  0.00000000E+00
  0.00000000E+00  0.00000000E+00  0.00000000E+00
  0.00000000E+00  0.00000000E+00  0.00000000E+00
  0.00000000E+00  0.00000000E+00  0.00000000E+00
  0.00000000E+00  0.00000000E+00  0.00000000E+00
  0.00000000E+00  0.00000000E+00  0.00000000E+00
  0.00000000E+00  0.00000000E+00  0.00000000E+00
  0.00000000E+00  0.00000000E+00  0.00000000E+00
  0.00000000E+00  0.00000000E+00  0.00000000E+00
  0.00000000E+00  0.00000000E+00  0.00000000E+00
  0.00000000E+00  0.00000000E+00  0.00000000E+00
  0.00000000E+00  0.00000000E+00  0.00000000E+00
  0.00000000E+00  0.00000000E+00  0.00000000E+00
  0.00000000E+00  0.00000000E+00  0.00000000E+00
  0.00000000E+00  0.00000000E+00  0.00000000E+00
  0.00000000E+00  0.00000000E+00  0.00000000E+00
  0.00000000E+00  0.00000000E+00  0.00000000E+00
  0.00000000E+00  0.00000000E+00  0.00000000E+00
  0.00000000E+00  0.00000000E+00  0.00000000E+00
  0.00000000E+00  0.00000000E+00  0.00000000E+00
  0.00000000E+00  0.00000000E+00  0.00000000E+00
  0.00000000E+00  0.00000000E+00  0.00000000E+00
  0.00000000E+00  0.00000000E+00  0.00000000E+00
  0.00000000E+00  0.00000000E+00  0.00000000E+00
  0.00000000E+00  0.00000000E+00  0.00000000E+00
  0.00000000E+00  0.00000000E+00  0.00000000E+00
  0.00000000E+00  0.00000000E+00  0.00000000E+00
  0.00000000E+00  0.00000000E+00  0.00000000E+00
  0.00000000E+00  0.00000000E+00  0.00000000E+00
  0.00000000E+00  0.00000000E+00  0.00000000E+00
  0.00000000E+00  0.00000000E+00  0.00000000E+00
  0.00000000E+00  0.00000000E+00  0.00000000E+00
