C O H                                   
   1.00000000000000     
    40.0000000000000000    0.0000000000000000    0.0000000000000000
     0.0000000000000000   40.0000000000000000    0.0000000000000000
     0.0000000000000000    0.0000000000000000   40.0000000000000000
   C    O    H 
     7     1     8
Selective dynamics
Direct
  0.4985512193151493  0.5229014956406841  0.4999990000000025   T   T   T
  0.4642994702456772  0.5294240045411390  0.4999990000000025   T   T   T
  0.4411528499635117  0.5035670090606199  0.5000000000000000   T   T   T
  0.4525281502908409  0.4706004512291296  0.5000009999999975   T   T   T
  0.4864682207538970  0.4636422513994455  0.5000009999999975   T   T   T
  0.5096213416735398  0.4898169292643343  0.5000000000000000   T   T   T
  0.5670283252608800  0.5062881253671203  0.5000000000000000   T   T   T
  0.5424461854650069  0.4804824149075137  0.5000000000000000   T   T   T
  0.5649427031521370  0.5219311376136736  0.4776653882413667   T   T   T
  0.5649417031521395  0.5219311376136736  0.5223346117586334   T   T   T
  0.5910722600169026  0.4936142718990303  0.5000009999999975   T   T   T
  0.4956234748168931  0.4381434348767793  0.5000020000000021   T   T   T
  0.4347888018905640  0.4500947953057244  0.5000020000000021   T   T   T
  0.4145961390906250  0.5088901461741836  0.5000000000000000   T   T   T
  0.4558540468644708  0.5551872952104699  0.4999979999999979   T   T   T
  0.5160851080477441  0.5434850998964927  0.4999979999999979   T   T   T
 
  0.00000000E+00  0.00000000E+00  0.00000000E+00
  0.00000000E+00  0.00000000E+00  0.00000000E+00
  0.00000000E+00  0.00000000E+00  0.00000000E+00
  0.00000000E+00  0.00000000E+00  0.00000000E+00
  0.00000000E+00  0.00000000E+00  0.00000000E+00
  0.00000000E+00  0.00000000E+00  0.00000000E+00
  0.00000000E+00  0.00000000E+00  0.00000000E+00
  0.00000000E+00  0.00000000E+00  0.00000000E+00
  0.00000000E+00  0.00000000E+00  0.00000000E+00
  0.00000000E+00  0.00000000E+00  0.00000000E+00
  0.00000000E+00  0.00000000E+00  0.00000000E+00
  0.00000000E+00  0.00000000E+00  0.00000000E+00
  0.00000000E+00  0.00000000E+00  0.00000000E+00
  0.00000000E+00  0.00000000E+00  0.00000000E+00
  0.00000000E+00  0.00000000E+00  0.00000000E+00
  0.00000000E+00  0.00000000E+00  0.00000000E+00
