C O H                                   
   1.00000000000000     
    40.0000000000000000    0.0000000000000000    0.0000000000000000
     0.0000000000000000   40.0000000000000000    0.0000000000000000
     0.0000000000000000    0.0000000000000000   40.0000000000000000
   C    O    H 
     8     1     6
Selective dynamics
Direct
  0.5168953531646352  0.4607065114702493  0.5000000000000000   T   T   T
  0.5478459964077658  0.4782890982072914  0.5000000000000000   T   T   T
  0.5496002004534972  0.5134658551546210  0.5000000000000000   T   T   T
  0.5207889661381415  0.5328107306012839  0.5000000000000000   T   T   T
  0.4893812820339605  0.5158930072449834  0.5000000000000000   T   T   T
  0.4889652884979157  0.4803719577062893  0.5000000000000000   T   T   T
  0.4367070426829613  0.4965258651691613  0.5000000000000000   T   T   T
  0.4558312366670521  0.5261612310538268  0.5000000000000000   T   T   T
  0.4558359649607553  0.4690952782347324  0.5000000000000000   T   T   T
  0.4457038694254720  0.5513261976829611  0.5000000000000000   T   T   T
  0.4098539077990608  0.4925483711446006  0.5000009999999975   T   T   T
  0.5218228550165946  0.5600212504242350  0.5000000000000000   T   T   T
  0.5740209982547597  0.5254734587331953  0.5000000000000000   T   T   T
  0.5709021452711269  0.4637852855160602  0.5000000000000000   T   T   T
  0.5158438932262968  0.4335249016565115  0.5000000000000000   T   T   T
 
  0.00000000E+00  0.00000000E+00  0.00000000E+00
  0.00000000E+00  0.00000000E+00  0.00000000E+00
  0.00000000E+00  0.00000000E+00  0.00000000E+00
  0.00000000E+00  0.00000000E+00  0.00000000E+00
  0.00000000E+00  0.00000000E+00  0.00000000E+00
  0.00000000E+00  0.00000000E+00  0.00000000E+00
  0.00000000E+00  0.00000000E+00  0.00000000E+00
  0.00000000E+00  0.00000000E+00  0.00000000E+00
  0.00000000E+00  0.00000000E+00  0.00000000E+00
  0.00000000E+00  0.00000000E+00  0.00000000E+00
  0.00000000E+00  0.00000000E+00  0.00000000E+00
  0.00000000E+00  0.00000000E+00  0.00000000E+00
  0.00000000E+00  0.00000000E+00  0.00000000E+00
  0.00000000E+00  0.00000000E+00  0.00000000E+00
  0.00000000E+00  0.00000000E+00  0.00000000E+00
