C N H                                   
   1.00000000000000     
    40.0000000000000000    0.0000000000000000    0.0000000000000000
     0.0000000000000000   40.0000000000000000    0.0000000000000000
     0.0000000000000000    0.0000000000000000   40.0000000000000000
   C    N    H 
     6     1     7
Selective dynamics
Direct
  0.4949735894719667  0.4689119179911482  0.4999893058459726   T   T   T
  0.5293866850379731  0.4692984677502953  0.5009978784972016   T   T   T
  0.5468378694990580  0.4999990000000025  0.5013991860128378   T   T   T
  0.5293866850379731  0.5307005322497000  0.5009978784972016   T   T   T
  0.4949745894719642  0.5310880820088516  0.4999893058459726   T   T   T
  0.4770382495910095  0.5000000000000000  0.4993429811954814   T   T   T
  0.4437462387887284  0.5000009999999975  0.4981155858761924   T   T   T
  0.4305314600764667  0.5217870235468006  0.4975848955895653   T   T   T
  0.4305304600764692  0.4782149764532013  0.4975848955895653   T   T   T
  0.4810065780150468  0.5544673485340903  0.4996005154265334   T   T   T
  0.5432533235612371  0.5541350948897835  0.5014207318736023   T   T   T
  0.5740763697957965  0.4999990000000025  0.5019565924497494   T   T   T
  0.5432523235612396  0.4458639051102049  0.5014207318736023   T   T   T
  0.4810045780150519  0.4455326514659098  0.4996005154265334   T   T   T
 
  0.00000000E+00  0.00000000E+00  0.00000000E+00
  0.00000000E+00  0.00000000E+00  0.00000000E+00
  0.00000000E+00  0.00000000E+00  0.00000000E+00
  0.00000000E+00  0.00000000E+00  0.00000000E+00
  0.00000000E+00  0.00000000E+00  0.00000000E+00
  0.00000000E+00  0.00000000E+00  0.00000000E+00
  0.00000000E+00  0.00000000E+00  0.00000000E+00
  0.00000000E+00  0.00000000E+00  0.00000000E+00
  0.00000000E+00  0.00000000E+00  0.00000000E+00
  0.00000000E+00  0.00000000E+00  0.00000000E+00
  0.00000000E+00  0.00000000E+00  0.00000000E+00
  0.00000000E+00  0.00000000E+00  0.00000000E+00
  0.00000000E+00  0.00000000E+00  0.00000000E+00
  0.00000000E+00  0.00000000E+00  0.00000000E+00
