C O H                                   
   1.00000000000000     
    40.0000000000000000    0.0000000000000000    0.0000000000000000
     0.0000000000000000   40.0000000000000000    0.0000000000000000
     0.0000000000000000    0.0000000000000000   40.0000000000000000
   C    O    H 
     9     1     8
Selective dynamics
Direct
  0.4884038460701297  0.4768605436229323  0.4999873647393716   T   T   T
  0.4737650137219424  0.5093675664974285  0.4999950349146469   T   T   T
  0.4941193769423936  0.5387822714778762  0.4999971569979259   T   T   T
  0.5282165436765585  0.5357680355756156  0.4999937971180257   T   T   T
  0.5432615599735343  0.5033105133387431  0.4999910739113276   T   T   T
  0.5225852330326211  0.4740595898619481  0.4999864618896691   T   T   T
  0.5780288385942201  0.5000590621097424  0.5000010579336476   T   T   T
  0.6084901682963652  0.4972826978487349  0.5000155790440244   T   T   T
  0.4176926392136712  0.4870636753621388  0.5000082744670333   T   T   T
  0.4411886595355238  0.5149150354958457  0.5000025122179687   T   T   T
  0.5344053314159065  0.4495402281809853  0.4999849146896071   T   T   T
  0.6352484439220485  0.4948122955328688  0.5000279522013733   T   T   T
  0.5441658490056438  0.5578184168594343  0.4999940731665143   T   T   T
  0.4818325769753471  0.5630793863680462  0.5000002695409586   T   T   T
  0.3930450444170556  0.4987508574329690  0.5000149740116455   T   T   T
  0.4213397511719827  0.4719833555105254  0.4774100986653633   T   T   T
  0.4213526422374407  0.4719812756979699  0.5226020226755532   T   T   T
  0.4728574817976252  0.4545651932261741  0.4999873818153228   T   T   T
 
  0.00000000E+00  0.00000000E+00  0.00000000E+00
  0.00000000E+00  0.00000000E+00  0.00000000E+00
  0.00000000E+00  0.00000000E+00  0.00000000E+00
  0.00000000E+00  0.00000000E+00  0.00000000E+00
  0.00000000E+00  0.00000000E+00  0.00000000E+00
  0.00000000E+00  0.00000000E+00  0.00000000E+00
  0.00000000E+00  0.00000000E+00  0.00000000E+00
  0.00000000E+00  0.00000000E+00  0.00000000E+00
  0.00000000E+00  0.00000000E+00  0.00000000E+00
  0.00000000E+00  0.00000000E+00  0.00000000E+00
  0.00000000E+00  0.00000000E+00  0.00000000E+00
  0.00000000E+00  0.00000000E+00  0.00000000E+00
  0.00000000E+00  0.00000000E+00  0.00000000E+00
  0.00000000E+00  0.00000000E+00  0.00000000E+00
  0.00000000E+00  0.00000000E+00  0.00000000E+00
  0.00000000E+00  0.00000000E+00  0.00000000E+00
  0.00000000E+00  0.00000000E+00  0.00000000E+00
  0.00000000E+00  0.00000000E+00  0.00000000E+00
