C Cl O H                                
   1.00000000000000     
    40.0000000000000000    0.0000000000000000    0.0000000000000000
     0.0000000000000000   40.0000000000000000    0.0000000000000000
     0.0000000000000000    0.0000000000000000   40.0000000000000000
   C    Cl   O    H 
     8     1     1     7
Selective dynamics
Direct
  0.5096060343846239  0.5232367609915207  0.5000135154615750   T   T   T
  0.5441438506668522  0.5237403534879050  0.5000082935264990   T   T   T
  0.5619898272735215  0.4935400998942254  0.4999966593415621   T   T   T
  0.5449798693363743  0.4628790400519661  0.4999949016540200   T   T   T
  0.5104887142886918  0.4624685199109760  0.4999999939308361   T   T   T
  0.4910937636454776  0.4926170177702732  0.5000086966050674   T   T   T
  0.4554192547690907  0.4912537534140542  0.5000055134604197   T   T   T
  0.4356944980792539  0.5236974880025447  0.4999917446588207   T   T   T
  0.6056943514756605  0.4941414794667277  0.4999872882914532   T   T   T
  0.4392779765544799  0.4634840859172382  0.5000097347313720   T   T   T
  0.4410325256952035  0.5392339485567272  0.5219644990537801   T   T   T
  0.4410606031324483  0.5392257817371097  0.4780197810357545   T   T   T
  0.4090809118867573  0.5177721007268379  0.4999735947334820   T   T   T
  0.4973480574535299  0.4387661233794811  0.5000025691573926   T   T   T
  0.5590371072992421  0.4396786242494861  0.4999897100391589   T   T   T
  0.5575685554621478  0.5473031263066709  0.5000125847857131   T   T   T
  0.4964830985966683  0.5469636961362937  0.5000219195330693   T   T   T
 
  0.00000000E+00  0.00000000E+00  0.00000000E+00
  0.00000000E+00  0.00000000E+00  0.00000000E+00
  0.00000000E+00  0.00000000E+00  0.00000000E+00
  0.00000000E+00  0.00000000E+00  0.00000000E+00
  0.00000000E+00  0.00000000E+00  0.00000000E+00
  0.00000000E+00  0.00000000E+00  0.00000000E+00
  0.00000000E+00  0.00000000E+00  0.00000000E+00
  0.00000000E+00  0.00000000E+00  0.00000000E+00
  0.00000000E+00  0.00000000E+00  0.00000000E+00
  0.00000000E+00  0.00000000E+00  0.00000000E+00
  0.00000000E+00  0.00000000E+00  0.00000000E+00
  0.00000000E+00  0.00000000E+00  0.00000000E+00
  0.00000000E+00  0.00000000E+00  0.00000000E+00
  0.00000000E+00  0.00000000E+00  0.00000000E+00
  0.00000000E+00  0.00000000E+00  0.00000000E+00
  0.00000000E+00  0.00000000E+00  0.00000000E+00
  0.00000000E+00  0.00000000E+00  0.00000000E+00
