C O H                                   
   1.00000000000000     
    40.0000000000000000    0.0000000000000000    0.0000000000000000
     0.0000000000000000   40.0000000000000000    0.0000000000000000
     0.0000000000000000    0.0000000000000000   40.0000000000000000
   C    O    H 
    10     1    12
Selective dynamics
Direct
  0.5029815421059496  0.5301474785914024  0.4999997411987280   T   T   T
  0.4688105372013851  0.5360697168021318  0.4999982706337534   T   T   T
  0.4460721288959988  0.5091916271990371  0.4999991100652537   T   T   T
  0.4582794441539804  0.4763515573382335  0.5000019702039893   T   T   T
  0.4928292560558489  0.4708891058803459  0.5000031325066558   T   T   T
  0.5160358861309575  0.4973042254223330  0.5000014468289606   T   T   T
  0.5519106014475099  0.4897620525711517  0.5000030961188955   T   T   T
  0.5775072868997171  0.5116758834121242  0.4999997974761357   T   T   T
  0.6136267579175794  0.5019784319135709  0.5000009976889785   T   T   T
  0.3888767510784490  0.4910262787611757  0.4999971537550465   T   T   T
  0.4129042845400761  0.5177181245616822  0.4999970552817601   T   T   T
  0.6266777507555830  0.5121950979828753  0.5220266854612419   T   T   T
  0.6266783096966861  0.5121873412850704  0.4779711341089694   T   T   T
  0.6167987155979660  0.4746821289400245  0.5000055954555762   T   T   T
  0.5723274121163371  0.5385719193886658  0.4999950937527871   T   T   T
  0.5580193391593937  0.4630273026910174  0.5000064545832643   T   T   T
  0.5020537178705311  0.4451779301317202  0.5000049700731353   T   T   T
  0.4414003526413879  0.4549962153193761  0.5000021362990594   T   T   T
  0.3914448806276027  0.4753891952216520  0.5225030902574943   T   T   T
  0.3914488242167522  0.4753883687394023  0.4774911165063145   T   T   T
  0.3643485719304920  0.5031644035757594  0.4999941242880439   T   T   T
  0.4590809501290423  0.5615514615503301  0.4999973212835584   T   T   T
  0.5198886988307905  0.5515541527209322  0.4999995061723865   T   T   T
 
  0.00000000E+00  0.00000000E+00  0.00000000E+00
  0.00000000E+00  0.00000000E+00  0.00000000E+00
  0.00000000E+00  0.00000000E+00  0.00000000E+00
  0.00000000E+00  0.00000000E+00  0.00000000E+00
  0.00000000E+00  0.00000000E+00  0.00000000E+00
  0.00000000E+00  0.00000000E+00  0.00000000E+00
  0.00000000E+00  0.00000000E+00  0.00000000E+00
  0.00000000E+00  0.00000000E+00  0.00000000E+00
  0.00000000E+00  0.00000000E+00  0.00000000E+00
  0.00000000E+00  0.00000000E+00  0.00000000E+00
  0.00000000E+00  0.00000000E+00  0.00000000E+00
  0.00000000E+00  0.00000000E+00  0.00000000E+00
  0.00000000E+00  0.00000000E+00  0.00000000E+00
  0.00000000E+00  0.00000000E+00  0.00000000E+00
  0.00000000E+00  0.00000000E+00  0.00000000E+00
  0.00000000E+00  0.00000000E+00  0.00000000E+00
  0.00000000E+00  0.00000000E+00  0.00000000E+00
  0.00000000E+00  0.00000000E+00  0.00000000E+00
  0.00000000E+00  0.00000000E+00  0.00000000E+00
  0.00000000E+00  0.00000000E+00  0.00000000E+00
  0.00000000E+00  0.00000000E+00  0.00000000E+00
  0.00000000E+00  0.00000000E+00  0.00000000E+00
  0.00000000E+00  0.00000000E+00  0.00000000E+00
