C O H                                   
   1.00000000000000     
    40.0000000000000000    0.0000000000000000    0.0000000000000000
     0.0000000000000000   40.0000000000000000    0.0000000000000000
     0.0000000000000000    0.0000000000000000   40.0000000000000000
   C    O    H 
    10     1    12
Selective dynamics
Direct
  0.4857318442021950  0.5215265808293219  0.4999974821685535   T   T   T
  0.4539651081278892  0.5074447044690570  0.4999989748661763   T   T   T
  0.4499173083830462  0.4719243871599325  0.5000017286416135   T   T   T
  0.4779624359575902  0.4514844335664214  0.5000014848004329   T   T   T
  0.5096751009834317  0.4653328746575762  0.5000005833220822   T   T   T
  0.5139706215801049  0.5011262340798655  0.4999999869203699   T   T   T
  0.5463042025098336  0.5163202040849303  0.4999973458090603   T   T   T
  0.5761978892261336  0.4998596682631665  0.5000031952236464   T   T   T
  0.6087903208116280  0.5169567971504054  0.5000004559488573   T   T   T
  0.3943324502777552  0.5162687008392739  0.4999992390368378   T   T   T
  0.4283251285303082  0.5286534230733579  0.4999963103393221   T   T   T
  0.6234302729604795  0.5089668938255874  0.4782471415545799   T   T   T
  0.6234279882984141  0.5089798416435561  0.5217601149689087   T   T   T
  0.6064387528632750  0.5440819349495825  0.4999922857430964   T   T   T
  0.5768372143264286  0.4727363152896699  0.5000096156376105   T   T   T
  0.5467010423359482  0.5434844473880804  0.4999923602482734   T   T   T
  0.5312682477832447  0.4491172911448338  0.5000021638920987   T   T   T
  0.4749005492862762  0.4246002933557669  0.5000048634599767   T   T   T
  0.4252205255184959  0.4609793764460577  0.5000016923339223   T   T   T
  0.3789009895192760  0.5385683749726761  0.4999989067850736   T   T   T
  0.3897680337190454  0.5015532239819328  0.5224499318416397   T   T   T
  0.3897647839265716  0.5015502966687529  0.4775511101999517   T   T   T
  0.4881691888726503  0.5484837021602013  0.4999930262578939   T   T   T
 
  0.00000000E+00  0.00000000E+00  0.00000000E+00
  0.00000000E+00  0.00000000E+00  0.00000000E+00
  0.00000000E+00  0.00000000E+00  0.00000000E+00
  0.00000000E+00  0.00000000E+00  0.00000000E+00
  0.00000000E+00  0.00000000E+00  0.00000000E+00
  0.00000000E+00  0.00000000E+00  0.00000000E+00
  0.00000000E+00  0.00000000E+00  0.00000000E+00
  0.00000000E+00  0.00000000E+00  0.00000000E+00
  0.00000000E+00  0.00000000E+00  0.00000000E+00
  0.00000000E+00  0.00000000E+00  0.00000000E+00
  0.00000000E+00  0.00000000E+00  0.00000000E+00
  0.00000000E+00  0.00000000E+00  0.00000000E+00
  0.00000000E+00  0.00000000E+00  0.00000000E+00
  0.00000000E+00  0.00000000E+00  0.00000000E+00
  0.00000000E+00  0.00000000E+00  0.00000000E+00
  0.00000000E+00  0.00000000E+00  0.00000000E+00
  0.00000000E+00  0.00000000E+00  0.00000000E+00
  0.00000000E+00  0.00000000E+00  0.00000000E+00
  0.00000000E+00  0.00000000E+00  0.00000000E+00
  0.00000000E+00  0.00000000E+00  0.00000000E+00
  0.00000000E+00  0.00000000E+00  0.00000000E+00
  0.00000000E+00  0.00000000E+00  0.00000000E+00
  0.00000000E+00  0.00000000E+00  0.00000000E+00
