!r2SCANh aug-cc-pVTZ d3 TightSCF SlowConv RIJCOSX defgrid2
 
%pal
nprocs 4
end
 
%scf
MaxIter 1500
end
 
%maxcore 3000
 
!CPCM
%cpcm smd true
SMDsolvent "MeCN"
surfacetype gepol_ses
rsolv 2.19
end 
 
* xyz -1 2
C           0.48430727092939     -1.21516905318477      0.00018212657990
C           1.86893489645764     -1.23471525883061      0.00003208773951
C           2.62346115159641     -0.04459960429403     -0.00011347347240
C           1.91719196899144      1.18166812135145     -0.00009858652004
C           0.53848704808454      1.21700668050313      0.00004693720302
C          -0.25134605739008      0.01820867284039      0.00018913172850
C          -1.68142459571573      0.11401828572460      0.00025810009938
O          -2.30904371905977      1.20375222206345     -0.00021388182496
C          -2.48201195396780     -1.18785928153366     -0.00008271887877
H          -3.55195535151616     -0.92055571828390     -0.00040503473791
H          -2.27639676371142     -1.81970454990542      0.88827366491426
H          -2.27584482297506     -1.81958543160251     -0.88839650427297
H          -0.00899519579743      2.16434489361400      0.00006122664782
H           2.47845175619435      2.12626372992034     -0.00020253099996
H           3.71827539321824     -0.06872896483531     -0.00023193512716
H           2.38810382970115     -2.20294221124226      0.00002680569261
H          -0.05769635503973     -2.16717953230489      0.00028068522919
*
