C N H                                   
   1.00000000000000     
    40.0000000000000000    0.0000000000000000    0.0000000000000000
     0.0000000000000000   40.0000000000000000    0.0000000000000000
     0.0000000000000000    0.0000000000000000   40.0000000000000000
   C    N    H 
     4     1     9
Selective dynamics
Direct
  0.5127260096561285  0.4698746002509831  0.4996396739603416   T   T   T
  0.5127168565459226  0.5301295865138531  0.4997053610265121   T   T   T
  0.4758204775478249  0.5194312420830365  0.5002686027069936   T   T   T
  0.4758335952891700  0.4805569958077350  0.5003469044419659   T   T   T
  0.5317338068439608  0.5000024848715772  0.5010235994534168   T   T   T
  0.5573091437446250  0.5000055748209667  0.5021248846628272   T   T   T
  0.4636241724647275  0.4707054727341868  0.5228025312089111   T   T   T
  0.4625896592402204  0.4704764262037608  0.4785978256429894   T   T   T
  0.4634799277601502  0.5293775805172998  0.5226091850878160   T   T   T
  0.4627045694321721  0.5294195696497174  0.4783923371857317   T   T   T
  0.5201978984398954  0.5439552375450966  0.4768715127418157   T   T   T
  0.5205256127788754  0.5465570176212324  0.5205270961089929   T   T   T
  0.5201451668227138  0.4561484452042577  0.4767250161558338   T   T   T
  0.5205941034335897  0.4533627661763180  0.5203644696158479   T   T   T
 
  0.00000000E+00  0.00000000E+00  0.00000000E+00
  0.00000000E+00  0.00000000E+00  0.00000000E+00
  0.00000000E+00  0.00000000E+00  0.00000000E+00
  0.00000000E+00  0.00000000E+00  0.00000000E+00
  0.00000000E+00  0.00000000E+00  0.00000000E+00
  0.00000000E+00  0.00000000E+00  0.00000000E+00
  0.00000000E+00  0.00000000E+00  0.00000000E+00
  0.00000000E+00  0.00000000E+00  0.00000000E+00
  0.00000000E+00  0.00000000E+00  0.00000000E+00
  0.00000000E+00  0.00000000E+00  0.00000000E+00
  0.00000000E+00  0.00000000E+00  0.00000000E+00
  0.00000000E+00  0.00000000E+00  0.00000000E+00
  0.00000000E+00  0.00000000E+00  0.00000000E+00
  0.00000000E+00  0.00000000E+00  0.00000000E+00
