C O H                                   
   1.00000000000000     
    40.0000000000000000    0.0000000000000000    0.0000000000000000
     0.0000000000000000   40.0000000000000000    0.0000000000000000
     0.0000000000000000    0.0000000000000000   40.0000000000000000
   C    O    H 
    12     1    10
Selective dynamics
Direct
  0.5334548221166884  0.4843644551443589  0.5170899932536841   T   T   T
  0.5648131259147178  0.4696188248917679  0.5174744114908663   T   T   T
  0.5920613872304870  0.4856043801732142  0.5020894221529986   T   T   T
  0.5881529870706146  0.5171261308104818  0.4868364139810879   T   T   T
  0.5571804980955903  0.5325971400988863  0.4865559971281712   T   T   T
  0.5298583609264753  0.5155977125922675  0.5009370199487719   T   T   T
  0.4701429683040885  0.5156032542433238  0.4990594439968774   T   T   T
  0.4428287546180201  0.5326120557177560  0.5134447160774300   T   T   T
  0.4118546714973306  0.5171440788018060  0.5131686950822782   T   T   T
  0.4079390588675622  0.4856178500897741  0.4979176455414134   T   T   T
  0.4351788164920336  0.4696322854237849  0.4825230110359939   T   T   T
  0.4665389422150099  0.4843752185753587  0.4828999609930023   T   T   T
  0.4999981659925510  0.5321511800137344  0.4999965608462489   T   T   T
  0.4876190317136846  0.4730902386619036  0.4698744456662070   T   T   T
  0.4316361708935403  0.4458440004928192  0.4697391382804952   T   T   T
  0.3833931882780703  0.4738183769052213  0.4974691949226653   T   T   T
  0.3904909004270891  0.5293690179973183  0.5248344441069435   T   T   T
  0.4468691977373140  0.5568971543236074  0.5250728838162004   T   T   T
  0.5531418849866938  0.5568786403586898  0.4749278672122159   T   T   T
  0.6095159155864636  0.5293425912969241  0.4751716491353406   T   T   T
  0.6166061828605791  0.4737928118846355  0.5025375380344528   T   T   T
  0.5683493370683195  0.4458346419394559  0.5302604456579729   T   T   T
  0.5123736311070886  0.4730889595628440  0.5301181016386849   T   T   T
 
  0.00000000E+00  0.00000000E+00  0.00000000E+00
  0.00000000E+00  0.00000000E+00  0.00000000E+00
  0.00000000E+00  0.00000000E+00  0.00000000E+00
  0.00000000E+00  0.00000000E+00  0.00000000E+00
  0.00000000E+00  0.00000000E+00  0.00000000E+00
  0.00000000E+00  0.00000000E+00  0.00000000E+00
  0.00000000E+00  0.00000000E+00  0.00000000E+00
  0.00000000E+00  0.00000000E+00  0.00000000E+00
  0.00000000E+00  0.00000000E+00  0.00000000E+00
  0.00000000E+00  0.00000000E+00  0.00000000E+00
  0.00000000E+00  0.00000000E+00  0.00000000E+00
  0.00000000E+00  0.00000000E+00  0.00000000E+00
  0.00000000E+00  0.00000000E+00  0.00000000E+00
  0.00000000E+00  0.00000000E+00  0.00000000E+00
  0.00000000E+00  0.00000000E+00  0.00000000E+00
  0.00000000E+00  0.00000000E+00  0.00000000E+00
  0.00000000E+00  0.00000000E+00  0.00000000E+00
  0.00000000E+00  0.00000000E+00  0.00000000E+00
  0.00000000E+00  0.00000000E+00  0.00000000E+00
  0.00000000E+00  0.00000000E+00  0.00000000E+00
  0.00000000E+00  0.00000000E+00  0.00000000E+00
  0.00000000E+00  0.00000000E+00  0.00000000E+00
  0.00000000E+00  0.00000000E+00  0.00000000E+00
