C O H                                   
   1.00000000000000     
    40.0000000000000000    0.0000000000000000    0.0000000000000000
     0.0000000000000000   40.0000000000000000    0.0000000000000000
     0.0000000000000000    0.0000000000000000   40.0000000000000000
   C    O    H 
    12     1    10
Selective dynamics
Direct
  0.5341634950554124  0.4868772330434902  0.5197980776878887   T   T   T
  0.5656258561132065  0.4717374561586899  0.5209906011361035   T   T   T
  0.5927712572262203  0.4855914176942699  0.5038045588959454   T   T   T
  0.5883095991628757  0.5149456828704233  0.4853033420140491   T   T   T
  0.5569414062009024  0.5302650009019412  0.4837288374864142   T   T   T
  0.5300456684599751  0.5160677586302179  0.5009415624267609   T   T   T
  0.4699540667504267  0.5160652327631433  0.4990603083447875   T   T   T
  0.4430559646144624  0.5302629268929020  0.5162699055742722   T   T   T
  0.4116884430901500  0.5149443230371675  0.5146927762570215   T   T   T
  0.4072280508816397  0.4855880502802032  0.4961931779563480   T   T   T
  0.4343769906830360  0.4717335829736816  0.4790104405796947   T   T   T
  0.4658375937459709  0.4868737069768551  0.4802062664837684   T   T   T
  0.4999994448246667  0.5334964046840677  0.5000016733125818   T   T   T
  0.4869297758820109  0.4761659969579354  0.4666722978229651   T   T   T
  0.4311080781738573  0.4489608946812419  0.4643433706819469   T   T   T
  0.3827679225146191  0.4735887270560433  0.4951201841894497   T   T   T
  0.3907002740898725  0.5259862697496032  0.5281685560414543   T   T   T
  0.4469883069754232  0.5530674674196969  0.5306830401975976   T   T   T
  0.5530070541279499  0.5530666520526306  0.4693126534692351   T   T   T
  0.6092956201374670  0.5259861290000045  0.4718247930703358   T   T   T
  0.6172326532090985  0.4735925927764235  0.5048765204660018   T   T   T
  0.5688962876863495  0.4489666923656438  0.5356600020788331   T   T   T
  0.5130741903944129  0.4761708010336718  0.5333360538265400   T   T   T
 
  0.00000000E+00  0.00000000E+00  0.00000000E+00
  0.00000000E+00  0.00000000E+00  0.00000000E+00
  0.00000000E+00  0.00000000E+00  0.00000000E+00
  0.00000000E+00  0.00000000E+00  0.00000000E+00
  0.00000000E+00  0.00000000E+00  0.00000000E+00
  0.00000000E+00  0.00000000E+00  0.00000000E+00
  0.00000000E+00  0.00000000E+00  0.00000000E+00
  0.00000000E+00  0.00000000E+00  0.00000000E+00
  0.00000000E+00  0.00000000E+00  0.00000000E+00
  0.00000000E+00  0.00000000E+00  0.00000000E+00
  0.00000000E+00  0.00000000E+00  0.00000000E+00
  0.00000000E+00  0.00000000E+00  0.00000000E+00
  0.00000000E+00  0.00000000E+00  0.00000000E+00
  0.00000000E+00  0.00000000E+00  0.00000000E+00
  0.00000000E+00  0.00000000E+00  0.00000000E+00
  0.00000000E+00  0.00000000E+00  0.00000000E+00
  0.00000000E+00  0.00000000E+00  0.00000000E+00
  0.00000000E+00  0.00000000E+00  0.00000000E+00
  0.00000000E+00  0.00000000E+00  0.00000000E+00
  0.00000000E+00  0.00000000E+00  0.00000000E+00
  0.00000000E+00  0.00000000E+00  0.00000000E+00
  0.00000000E+00  0.00000000E+00  0.00000000E+00
  0.00000000E+00  0.00000000E+00  0.00000000E+00
