C N H                                   
   1.00000000000000     
    40.0000000000000000    0.0000000000000000    0.0000000000000000
     0.0000000000000000   40.0000000000000000    0.0000000000000000
     0.0000000000000000    0.0000000000000000   40.0000000000000000
   C    N    H 
     9     2    16
Selective dynamics
Direct
  0.5678808621796155  0.4770976857373025  0.5110688495886624   T   T   T
  0.5120862122283784  0.4793471236216234  0.4914566311529194   T   T   T
  0.4811316534935562  0.5327973700247619  0.4848861550129000   T   T   T
  0.4537585513025592  0.5287027069698405  0.5113440308959634   T   T   T
  0.4327118528228963  0.4972185970698472  0.5067709767665487   T   T   T
  0.4523067111384561  0.4644792299961658  0.5078343932509857   T   T   T
  0.4802450144333338  0.4616939327454099  0.4815370077760791   T   T   T
  0.5405294202113046  0.5320811156899271  0.5036001444937847   T   T   T
  0.5722148709608104  0.5122462580521874  0.4971589022785320   T   T   T
  0.5371488719310212  0.4606800397728617  0.5001386952957899   T   T   T
  0.5115957899671406  0.5135971654377638  0.4911061312199829   T   T   T
  0.4710910554670626  0.4708847746648266  0.4573898656524220   T   T   T
  0.4870622978900527  0.4355066320016210  0.4783215709791643   T   T   T
  0.4631892954977944  0.4608033693460302  0.5327326739029342   T   T   T
  0.4348089818703709  0.4438288482388196  0.5038413691373305   T   T   T
  0.4131652245735332  0.4965382769757236  0.5259200641167152   T   T   T
  0.4198365187113164  0.4988840845175716  0.4825767161030122   T   T   T
  0.4653213825117286  0.5290884954897808  0.5361972618605925   T   T   T
  0.4372740149763862  0.5505146044432636  0.5098916367770707   T   T   T
  0.4710085334349624  0.5265817751526741  0.4601739680721143   T   T   T
  0.4888367337355889  0.5589400255681608  0.4837861615376209   T   T   T
  0.5935632061662200  0.5248163686560986  0.5086787726272848   T   T   T
  0.5767734240453102  0.5110166593751638  0.4701936953411345   T   T   T
  0.5413761246809987  0.5561694429102936  0.4907402043656903   T   T   T
  0.5377469757593106  0.5371449474498710  0.5304733914199420   T   T   T
  0.5683055669968475  0.4779661390138709  0.5385381960490442   T   T   T
  0.5890298530134612  0.4613753310785367  0.5036425343257798   T   T   T
 
  0.00000000E+00  0.00000000E+00  0.00000000E+00
  0.00000000E+00  0.00000000E+00  0.00000000E+00
  0.00000000E+00  0.00000000E+00  0.00000000E+00
  0.00000000E+00  0.00000000E+00  0.00000000E+00
  0.00000000E+00  0.00000000E+00  0.00000000E+00
  0.00000000E+00  0.00000000E+00  0.00000000E+00
  0.00000000E+00  0.00000000E+00  0.00000000E+00
  0.00000000E+00  0.00000000E+00  0.00000000E+00
  0.00000000E+00  0.00000000E+00  0.00000000E+00
  0.00000000E+00  0.00000000E+00  0.00000000E+00
  0.00000000E+00  0.00000000E+00  0.00000000E+00
  0.00000000E+00  0.00000000E+00  0.00000000E+00
  0.00000000E+00  0.00000000E+00  0.00000000E+00
  0.00000000E+00  0.00000000E+00  0.00000000E+00
  0.00000000E+00  0.00000000E+00  0.00000000E+00
  0.00000000E+00  0.00000000E+00  0.00000000E+00
  0.00000000E+00  0.00000000E+00  0.00000000E+00
  0.00000000E+00  0.00000000E+00  0.00000000E+00
  0.00000000E+00  0.00000000E+00  0.00000000E+00
  0.00000000E+00  0.00000000E+00  0.00000000E+00
  0.00000000E+00  0.00000000E+00  0.00000000E+00
  0.00000000E+00  0.00000000E+00  0.00000000E+00
  0.00000000E+00  0.00000000E+00  0.00000000E+00
  0.00000000E+00  0.00000000E+00  0.00000000E+00
  0.00000000E+00  0.00000000E+00  0.00000000E+00
  0.00000000E+00  0.00000000E+00  0.00000000E+00
  0.00000000E+00  0.00000000E+00  0.00000000E+00
