C N H                                   
   1.00000000000000     
    40.0000000000000000    0.0000000000000000    0.0000000000000000
     0.0000000000000000   40.0000000000000000    0.0000000000000000
     0.0000000000000000    0.0000000000000000   40.0000000000000000
   C    N    H 
     7     1     9
Selective dynamics
Direct
  0.4772900348510021  0.5301554488501381  0.4994387725715370   T   T   T
  0.5121529966142049  0.5299289477673454  0.4996237443180718   T   T   T
  0.5304543975589908  0.5000067018495500  0.4996188195850664   T   T   T
  0.5681536895752473  0.4999979096087657  0.4989364010835757   T   T   T
  0.5121549440193860  0.4700792908308387  0.4996163835483856   T   T   T
  0.4772958554501230  0.4698517158729771  0.4994308978063700   T   T   T
  0.4591511308981566  0.5000034785995879  0.4993050559585512   T   T   T
  0.4243201149143871  0.4999984056572018  0.4976658695080758   T   T   T
  0.5784473311513310  0.5224563088934886  0.5109624921785070   T   T   T
  0.5777982059157338  0.4995004420949698  0.4731311629815380   T   T   T
  0.5784625804191421  0.4780167322919340  0.5118076223038130   T   T   T
  0.4128015015408693  0.4789374653961360  0.5058541224334405   T   T   T
  0.4127950041032307  0.5210539398641885  0.5058531049378701   T   T   T
  0.4638620504613300  0.4460797828237517  0.4994934687994643   T   T   T
  0.5255038560831693  0.4462492012529751  0.4998676473629970   T   T   T
  0.5255006159146021  0.5537584531097934  0.4998832711050625   T   T   T
  0.4638556905290798  0.5539257752363724  0.4995111635176457   T   T   T
 
  0.00000000E+00  0.00000000E+00  0.00000000E+00
  0.00000000E+00  0.00000000E+00  0.00000000E+00
  0.00000000E+00  0.00000000E+00  0.00000000E+00
  0.00000000E+00  0.00000000E+00  0.00000000E+00
  0.00000000E+00  0.00000000E+00  0.00000000E+00
  0.00000000E+00  0.00000000E+00  0.00000000E+00
  0.00000000E+00  0.00000000E+00  0.00000000E+00
  0.00000000E+00  0.00000000E+00  0.00000000E+00
  0.00000000E+00  0.00000000E+00  0.00000000E+00
  0.00000000E+00  0.00000000E+00  0.00000000E+00
  0.00000000E+00  0.00000000E+00  0.00000000E+00
  0.00000000E+00  0.00000000E+00  0.00000000E+00
  0.00000000E+00  0.00000000E+00  0.00000000E+00
  0.00000000E+00  0.00000000E+00  0.00000000E+00
  0.00000000E+00  0.00000000E+00  0.00000000E+00
  0.00000000E+00  0.00000000E+00  0.00000000E+00
  0.00000000E+00  0.00000000E+00  0.00000000E+00
