!PBE0 def2-SV(p) Opt Freq d3 TightSCF SlowConv RIJCOSX defgrid2
 
%pal
nprocs 4
end
 
%scf
MaxIter 1500
end
 
%maxcore 3000
 

 
* xyz 0 1
C    -1.4647708    0.0000363    0.2428003 
C    -0.7246445   -1.2447692   -0.2389684 
C     0.7273306   -1.1993298    0.2329732 
N     1.3602635   -0.0000363   -0.2860153 
H     2.3478521   -0.0000611   -0.0531922 
C     0.7273914    1.1992909    0.2329696 
C    -0.7245814    1.2448027   -0.2389722 
H    -1.2056892    2.1483633    0.1394953 
H    -0.7362531    1.2737377   -1.3293095 
H     1.2734101    2.0675715   -0.1452733 
H     0.7470402    1.2348181    1.3394904 
H     1.2733050   -2.0676393   -0.1452676 
H     0.7469779   -1.2348551    1.3394940 
H    -1.2057981   -2.1483042    0.1395020 
H    -0.7363178   -1.2737072   -1.3293056 
H    -2.4898348    0.0000618   -0.1326105 
H    -1.5046662    0.0000391    1.3355520
*
