C N O H                                 
   1.00000000000000     
    40.0000000000000000    0.0000000000000000    0.0000000000000000
     0.0000000000000000   40.0000000000000000    0.0000000000000000
     0.0000000000000000    0.0000000000000000   40.0000000000000000
   C    N    O    H 
    10     1     1    17
Selective dynamics
Direct
  0.4704534052129833  0.4682689706619197  0.5039203487516889   T   T   T
  0.4915921363903896  0.4992570350948779  0.5088347240132945   T   T   T
  0.4786858505011048  0.5300353979773454  0.5038332976590795   T   T   T
  0.4428131241953325  0.5366203368964457  0.4946240092305572   T   T   T
  0.4247050898593241  0.5053071754117074  0.4825026491669199   T   T   T
  0.4330778624703350  0.4759176156131999  0.5052201546958817   T   T   T
  0.5461772438775315  0.5211485110574144  0.5280162028862760   T   T   T
  0.5654779741717685  0.5314875239701466  0.4968953232430817   T   T   T
  0.5625198283208405  0.4762200101969142  0.4765129337479579   T   T   T
  0.5431206255005048  0.4652121071333072  0.5073479522304573   T   T   T
  0.5238133333915094  0.4930668101183167  0.5214000286480744   T   T   T
  0.5842669489456515  0.5036485095049733  0.4842126637553865   T   T   T
  0.4259478914672006  0.4820479002199844  0.5309970997702506   T   T   T
  0.4189293171255293  0.4536265831852448  0.4981059940317862   T   T   T
  0.4327019878387146  0.4993546798368076  0.4569513447396992   T   T   T
  0.3977095288996332  0.5096632201456788  0.4816797968797144   T   T   T
  0.4293507651934214  0.5470099791555935  0.5162867952878206   T   T   T
  0.4416945463025010  0.5561679787815897  0.4754357479586231   T   T   T
  0.4941851385702131  0.5519931240249626  0.5073395701172155   T   T   T
  0.5321186836070482  0.5420868042823063  0.5383834153614588   T   T   T
  0.5836004769833212  0.5510644570754891  0.5026133957551656   T   T   T
  0.5483823646279886  0.5404548200579250  0.4773701628523845   T   T   T
  0.5451049612406523  0.4837611561903416  0.4565922309934969   T   T   T
  0.5607934436431355  0.4567002480399907  0.5264741905631410   T   T   T
  0.5267533414996186  0.4443582877139196  0.5011216671162202   T   T   T
  0.5784579076251901  0.4560910126960764  0.4672665713869684   T   T   T
  0.5641829347723591  0.5129271583124030  0.5469839268810639   T   T   T
  0.4764420279173228  0.4565170180671448  0.4798491155261405   T   T   T
  0.4769432598488703  0.4499865685779720  0.5232316867502081   T   T   T
 
  0.00000000E+00  0.00000000E+00  0.00000000E+00
  0.00000000E+00  0.00000000E+00  0.00000000E+00
  0.00000000E+00  0.00000000E+00  0.00000000E+00
  0.00000000E+00  0.00000000E+00  0.00000000E+00
  0.00000000E+00  0.00000000E+00  0.00000000E+00
  0.00000000E+00  0.00000000E+00  0.00000000E+00
  0.00000000E+00  0.00000000E+00  0.00000000E+00
  0.00000000E+00  0.00000000E+00  0.00000000E+00
  0.00000000E+00  0.00000000E+00  0.00000000E+00
  0.00000000E+00  0.00000000E+00  0.00000000E+00
  0.00000000E+00  0.00000000E+00  0.00000000E+00
  0.00000000E+00  0.00000000E+00  0.00000000E+00
  0.00000000E+00  0.00000000E+00  0.00000000E+00
  0.00000000E+00  0.00000000E+00  0.00000000E+00
  0.00000000E+00  0.00000000E+00  0.00000000E+00
  0.00000000E+00  0.00000000E+00  0.00000000E+00
  0.00000000E+00  0.00000000E+00  0.00000000E+00
  0.00000000E+00  0.00000000E+00  0.00000000E+00
  0.00000000E+00  0.00000000E+00  0.00000000E+00
  0.00000000E+00  0.00000000E+00  0.00000000E+00
  0.00000000E+00  0.00000000E+00  0.00000000E+00
  0.00000000E+00  0.00000000E+00  0.00000000E+00
  0.00000000E+00  0.00000000E+00  0.00000000E+00
  0.00000000E+00  0.00000000E+00  0.00000000E+00
  0.00000000E+00  0.00000000E+00  0.00000000E+00
  0.00000000E+00  0.00000000E+00  0.00000000E+00
  0.00000000E+00  0.00000000E+00  0.00000000E+00
  0.00000000E+00  0.00000000E+00  0.00000000E+00
  0.00000000E+00  0.00000000E+00  0.00000000E+00
