C N O H                                 
   1.00000000000000     
    25.0000000000000000    0.0000000000000000    0.0000000000000000
     0.0000000000000000   25.0000000000000000    0.0000000000000000
     0.0000000000000000    0.0000000000000000   25.0000000000000000
   C    N    O    H 
    10     1     3    18
Selective dynamics
Direct
  0.5049248797152274  0.5431457823378727  0.4594866643799385   T   T   T
  0.5311204435479745  0.4888289378985966  0.4470909864118859   T   T   T
  0.5434715839302581  0.4560307078976160  0.4976911045852377   T   T   T
  0.4907791688676270  0.4449898676046342  0.5266085087531345   T   T   T
  0.4617550915787709  0.4963199260788971  0.5444220551868694   T   T   T
  0.5459814743834728  0.5834904921776692  0.4815457838140128   T   T   T
  0.4801571866179349  0.5652088720409431  0.4078361163509650   T   T   T
  0.4889690489665939  0.5218707583510634  0.5935130295984223   T   T   T
  0.4035895290450563  0.4823561427302629  0.5582557844054984   T   T   T
  0.5748088118502775  0.4066876182798393  0.4817055885988346   T   T   T
  0.4604908713186963  0.5363389040338095  0.4994860032181187   T   T   T
  0.4292873541093494  0.5769995490098904  0.5059853896702078   T   T   T
  0.6227549328229880  0.4072840506188744  0.4710529695725315   T   T   T
  0.5446546303694251  0.3619150349516229  0.4787495655899407   T   T   T
  0.5678184211754085  0.4964935955751688  0.4240989152840600   T   T   T
  0.5042025411224443  0.4652638611169813  0.4213372712124984   T   T   T
  0.5709926729241641  0.4789221376351743  0.5233347399203767   T   T   T
  0.4971136328646427  0.4201329133207713  0.5623374701649455   T   T   T
  0.4643484349799526  0.4222326716422664  0.4997505266576646   T   T   T
  0.5253966663785663  0.6201133608492987  0.4943065565192759   T   T   T
  0.5684998072120996  0.5676641205929021  0.5157458998620796   T   T   T
  0.5747893620137956  0.5938788566489742  0.4500113896044044   T   T   T
  0.4625849678279496  0.6047840208714791  0.4146532674077644   T   T   T
  0.4488183467582875  0.5382506672562948  0.3928852240225406   T   T   T
  0.5114154498868189  0.5687059206042432  0.3771501032979935   T   T   T
  0.4703727570350985  0.5606537818090810  0.6023554759111472   T   T   T
  0.5320120650852639  0.5281532905306321  0.5876067170456093   T   T   T
  0.4838112310675656  0.4956285546258098  0.6284026217105360   T   T   T
  0.3820402585167422  0.5176113780794441  0.5729049373043400   T   T   T
  0.3826013340049553  0.4666347996372820  0.5229678866753144   T   T   T
  0.4032248258509941  0.4515260141821679  0.5895773678369006   T   T   T
  0.5672112181716091  0.3318834110104238  0.4671460794269529   T   T   T
 
  0.00000000E+00  0.00000000E+00  0.00000000E+00
  0.00000000E+00  0.00000000E+00  0.00000000E+00
  0.00000000E+00  0.00000000E+00  0.00000000E+00
  0.00000000E+00  0.00000000E+00  0.00000000E+00
  0.00000000E+00  0.00000000E+00  0.00000000E+00
  0.00000000E+00  0.00000000E+00  0.00000000E+00
  0.00000000E+00  0.00000000E+00  0.00000000E+00
  0.00000000E+00  0.00000000E+00  0.00000000E+00
  0.00000000E+00  0.00000000E+00  0.00000000E+00
  0.00000000E+00  0.00000000E+00  0.00000000E+00
  0.00000000E+00  0.00000000E+00  0.00000000E+00
  0.00000000E+00  0.00000000E+00  0.00000000E+00
  0.00000000E+00  0.00000000E+00  0.00000000E+00
  0.00000000E+00  0.00000000E+00  0.00000000E+00
  0.00000000E+00  0.00000000E+00  0.00000000E+00
  0.00000000E+00  0.00000000E+00  0.00000000E+00
  0.00000000E+00  0.00000000E+00  0.00000000E+00
  0.00000000E+00  0.00000000E+00  0.00000000E+00
  0.00000000E+00  0.00000000E+00  0.00000000E+00
  0.00000000E+00  0.00000000E+00  0.00000000E+00
  0.00000000E+00  0.00000000E+00  0.00000000E+00
  0.00000000E+00  0.00000000E+00  0.00000000E+00
  0.00000000E+00  0.00000000E+00  0.00000000E+00
  0.00000000E+00  0.00000000E+00  0.00000000E+00
  0.00000000E+00  0.00000000E+00  0.00000000E+00
  0.00000000E+00  0.00000000E+00  0.00000000E+00
  0.00000000E+00  0.00000000E+00  0.00000000E+00
  0.00000000E+00  0.00000000E+00  0.00000000E+00
  0.00000000E+00  0.00000000E+00  0.00000000E+00
  0.00000000E+00  0.00000000E+00  0.00000000E+00
  0.00000000E+00  0.00000000E+00  0.00000000E+00
  0.00000000E+00  0.00000000E+00  0.00000000E+00
