C H                                     
   1.00000000000000     
    40.0000000000000000    0.0000000000000000    0.0000000000000000
     0.0000000000000000   40.0000000000000000    0.0000000000000000
     0.0000000000000000    0.0000000000000000   40.0000000000000000
   C    H 
    14    12
Selective dynamics
Direct
  0.5600290776166246  0.4794989218373990  0.5169668530637263   T   T   T
  0.5318178355084838  0.4903274397107520  0.4989820576486951   T   T   T
  0.5345862806926956  0.5195273536065865  0.4795174665383796   T   T   T
  0.5647452021777243  0.5370011822737807  0.4776520250061692   T   T   T
  0.5926863336471779  0.5258257574001320  0.4954991560974586   T   T   T
  0.5901781655551512  0.4970274091741682  0.5152069788560896   T   T   T
  0.5000000000000000  0.4711807733148319  0.5000000000000000   T   T   T
  0.5000000000000000  0.4374193959755077  0.4999990000000025   T   T   T
  0.4681821644915162  0.4903274397107520  0.5010179423513049   T   T   T
  0.4399709223833755  0.4794999218374035  0.4830331469362737   T   T   T
  0.4098218344448488  0.4970284091741657  0.4847930211439106   T   T   T
  0.4073136663528220  0.5258267574001295  0.5045008439025415   T   T   T
  0.4352547978222758  0.5370011822737807  0.5223489749938426   T   T   T
  0.4654137193073044  0.5195273536065865  0.5204835334616251   T   T   T
  0.6117083259801656  0.4883708129462741  0.5295545318705719   T   T   T
  0.6161999658145819  0.5396007318023445  0.4942160077626338   T   T   T
  0.5664302355426819  0.5594400806247902  0.4622184368550332   T   T   T
  0.5129230547250857  0.5284163701689990  0.4655173270227340   T   T   T
  0.4767863352015935  0.4232350348323723  0.5018658607253275   T   T   T
  0.5232126647984091  0.4232340348323678  0.4981321392746705   T   T   T
  0.4870769452749142  0.5284153701690015  0.5344836729772635   T   T   T
  0.4335697644573180  0.5594390806247928  0.5377835631449690   T   T   T
  0.3838000341854181  0.5396017318023490  0.5057849922373635   T   T   T
  0.3882916740198344  0.4883718129462716  0.4704444681294306   T   T   T
  0.4419426258519316  0.4574273209772353  0.4671146057455205   T   T   T
  0.5580573741480683  0.4574263209772378  0.5328833942544774   T   T   T
 
  0.00000000E+00  0.00000000E+00  0.00000000E+00
  0.00000000E+00  0.00000000E+00  0.00000000E+00
  0.00000000E+00  0.00000000E+00  0.00000000E+00
  0.00000000E+00  0.00000000E+00  0.00000000E+00
  0.00000000E+00  0.00000000E+00  0.00000000E+00
  0.00000000E+00  0.00000000E+00  0.00000000E+00
  0.00000000E+00  0.00000000E+00  0.00000000E+00
  0.00000000E+00  0.00000000E+00  0.00000000E+00
  0.00000000E+00  0.00000000E+00  0.00000000E+00
  0.00000000E+00  0.00000000E+00  0.00000000E+00
  0.00000000E+00  0.00000000E+00  0.00000000E+00
  0.00000000E+00  0.00000000E+00  0.00000000E+00
  0.00000000E+00  0.00000000E+00  0.00000000E+00
  0.00000000E+00  0.00000000E+00  0.00000000E+00
  0.00000000E+00  0.00000000E+00  0.00000000E+00
  0.00000000E+00  0.00000000E+00  0.00000000E+00
  0.00000000E+00  0.00000000E+00  0.00000000E+00
  0.00000000E+00  0.00000000E+00  0.00000000E+00
  0.00000000E+00  0.00000000E+00  0.00000000E+00
  0.00000000E+00  0.00000000E+00  0.00000000E+00
  0.00000000E+00  0.00000000E+00  0.00000000E+00
  0.00000000E+00  0.00000000E+00  0.00000000E+00
  0.00000000E+00  0.00000000E+00  0.00000000E+00
  0.00000000E+00  0.00000000E+00  0.00000000E+00
  0.00000000E+00  0.00000000E+00  0.00000000E+00
  0.00000000E+00  0.00000000E+00  0.00000000E+00
