C N H                                   
   1.00000000000000     
    40.0000000000000000    0.0000000000000000    0.0000000000000000
     0.0000000000000000   40.0000000000000000    0.0000000000000000
     0.0000000000000000    0.0000000000000000   40.0000000000000000
   C    N    H 
     3     2     4
Selective dynamics
Direct
  0.5039580800601442  0.5254040458165790  0.5000009999999975   T   T   T
  0.5254648498080456  0.4960305779248699  0.5000000000000000   T   T   T
  0.5026555565010256  0.4684539916297794  0.5000009999999975   T   T   T
  0.4714483743175322  0.4787278947619029  0.4999990000000025   T   T   T
  0.4734063259198678  0.5142196842227662  0.4999990000000025   T   T   T
  0.4516141770954789  0.5275669264937619  0.4999990000000025   T   T   T
  0.5085118409494029  0.4419572856550573  0.5000009999999975   T   T   T
  0.5525848548246444  0.4958738097712256  0.5000000000000000   T   T   T
  0.5103549405238468  0.5517647837240602  0.5000009999999975   T   T   T
 
  0.00000000E+00  0.00000000E+00  0.00000000E+00
  0.00000000E+00  0.00000000E+00  0.00000000E+00
  0.00000000E+00  0.00000000E+00  0.00000000E+00
  0.00000000E+00  0.00000000E+00  0.00000000E+00
  0.00000000E+00  0.00000000E+00  0.00000000E+00
  0.00000000E+00  0.00000000E+00  0.00000000E+00
  0.00000000E+00  0.00000000E+00  0.00000000E+00
  0.00000000E+00  0.00000000E+00  0.00000000E+00
  0.00000000E+00  0.00000000E+00  0.00000000E+00
