C Cl O H                                
   1.00000000000000     
    40.0000000000000000    0.0000000000000000    0.0000000000000000
     0.0000000000000000   40.0000000000000000    0.0000000000000000
     0.0000000000000000    0.0000000000000000   40.0000000000000000
   C    Cl   O    H 
     8     1     1     7
Selective dynamics
Direct
  0.5096406951879806  0.5232483712399851  0.5000087664399963   T   T   T
  0.5445030978584834  0.5238161709886207  0.5000109980713989   T   T   T
  0.5619208311283400  0.4935207302651461  0.4999973309934410   T   T   T
  0.5450972460801680  0.4628087461989150  0.4999981661124754   T   T   T
  0.5103222240949387  0.4626972402553384  0.5000038305523984   T   T   T
  0.4920850473627159  0.4927847533454122  0.5000032313874057   T   T   T
  0.4547265618314650  0.4913155806923672  0.5000075095042372   T   T   T
  0.4351208329258692  0.5235693442070665  0.4999851389462001   T   T   T
  0.6053095785355399  0.4939026040969134  0.4999768875527108   T   T   T
  0.4401436836452040  0.4639982515856056  0.5000157112600894   T   T   T
  0.4412631304506537  0.5387212668570359  0.5221033963333664   T   T   T
  0.4412894673206921  0.5387197050182494  0.4778719384012634   T   T   T
  0.4083277017224458  0.5179404423427312  0.4999709448322851   T   T   T
  0.4967351365639366  0.4390613554922211  0.5000041460141345   T   T   T
  0.5591504269751679  0.4394747080049364  0.4999905071487562   T   T   T
  0.5580671143150736  0.5474295446770850  0.5000207830256675   T   T   T
  0.4962962240013412  0.5469931847323726  0.5000317134241640   T   T   T
 
  0.00000000E+00  0.00000000E+00  0.00000000E+00
  0.00000000E+00  0.00000000E+00  0.00000000E+00
  0.00000000E+00  0.00000000E+00  0.00000000E+00
  0.00000000E+00  0.00000000E+00  0.00000000E+00
  0.00000000E+00  0.00000000E+00  0.00000000E+00
  0.00000000E+00  0.00000000E+00  0.00000000E+00
  0.00000000E+00  0.00000000E+00  0.00000000E+00
  0.00000000E+00  0.00000000E+00  0.00000000E+00
  0.00000000E+00  0.00000000E+00  0.00000000E+00
  0.00000000E+00  0.00000000E+00  0.00000000E+00
  0.00000000E+00  0.00000000E+00  0.00000000E+00
  0.00000000E+00  0.00000000E+00  0.00000000E+00
  0.00000000E+00  0.00000000E+00  0.00000000E+00
  0.00000000E+00  0.00000000E+00  0.00000000E+00
  0.00000000E+00  0.00000000E+00  0.00000000E+00
  0.00000000E+00  0.00000000E+00  0.00000000E+00
  0.00000000E+00  0.00000000E+00  0.00000000E+00
