C O S H                                 
   1.00000000000000     
    40.0000000000000000    0.0000000000000000    0.0000000000000000
     0.0000000000000000   40.0000000000000000    0.0000000000000000
     0.0000000000000000    0.0000000000000000   40.0000000000000000
   C    O    S    H 
     7     1     1     8
Selective dynamics
Direct
  0.5516318057233320  0.5014278450168632  0.4977826673395569   T   T   T
  0.5366492446075455  0.5332020190834186  0.4991872218030835   T   T   T
  0.5020542271544883  0.5362610919065531  0.5010472274083142   T   T   T
  0.4816478291247819  0.5076678290974428  0.5019436282221719   T   T   T
  0.4964270472062395  0.4758884110962782  0.5009855622112198   T   T   T
  0.5312242270991590  0.4729874558046987  0.4987656582629896   T   T   T
  0.4262551141467270  0.4846993682941161  0.5035107039787761   T   T   T
  0.4478771279249329  0.5133848781555059  0.5036293273534866   T   T   T
  0.5955682376018530  0.4957787166032119  0.4955579581356702   T   T   T
  0.5423573629872038  0.4481030048996359  0.4976661984841897   T   T   T
  0.4813319967224956  0.4532639795507407  0.5017014078645161   T   T   T
  0.4007503205512890  0.4945872039427002  0.5043390349414310   T   T   T
  0.4296800862935797  0.4698560386656538  0.4805824385492343   T   T   T
  0.4307116145394900  0.4688244374928416  0.5255645840866165   T   T   T
  0.4903845628980434  0.5609076140744094  0.5019125777187128   T   T   T
  0.5520445076184686  0.5556971932152237  0.4987671844527881   T   T   T
  0.6034026878003544  0.5274639131007177  0.4870546191872478   T   T   T
 
  0.00000000E+00  0.00000000E+00  0.00000000E+00
  0.00000000E+00  0.00000000E+00  0.00000000E+00
  0.00000000E+00  0.00000000E+00  0.00000000E+00
  0.00000000E+00  0.00000000E+00  0.00000000E+00
  0.00000000E+00  0.00000000E+00  0.00000000E+00
  0.00000000E+00  0.00000000E+00  0.00000000E+00
  0.00000000E+00  0.00000000E+00  0.00000000E+00
  0.00000000E+00  0.00000000E+00  0.00000000E+00
  0.00000000E+00  0.00000000E+00  0.00000000E+00
  0.00000000E+00  0.00000000E+00  0.00000000E+00
  0.00000000E+00  0.00000000E+00  0.00000000E+00
  0.00000000E+00  0.00000000E+00  0.00000000E+00
  0.00000000E+00  0.00000000E+00  0.00000000E+00
  0.00000000E+00  0.00000000E+00  0.00000000E+00
  0.00000000E+00  0.00000000E+00  0.00000000E+00
  0.00000000E+00  0.00000000E+00  0.00000000E+00
  0.00000000E+00  0.00000000E+00  0.00000000E+00
