C N O H                                 
   1.00000000000000     
    40.0000000000000000    0.0000000000000000    0.0000000000000000
     0.0000000000000000   40.0000000000000000    0.0000000000000000
     0.0000000000000000    0.0000000000000000   40.0000000000000000
   C    N    O    H 
     9     1     2     7
Selective dynamics
Direct
  0.5169353326980607  0.4641248554517180  0.4999998620557994   T   T   T
  0.5512391175556587  0.4666403040575192  0.4999976617768805   T   T   T
  0.5674303163594177  0.4986742865067708  0.4999929553648829   T   T   T
  0.5464418830587391  0.5277778627456454  0.4999914908004547   T   T   T
  0.5121291285246642  0.5250298492698445  0.4999970523816494   T   T   T
  0.4958774630349367  0.4930941048822142  0.5000000595072243   T   T   T
  0.4601560182029815  0.4888917628308222  0.5000037506739951   T   T   T
  0.4073225867438783  0.5166516330460302  0.5000068173019864   T   T   T
  0.6023737585934930  0.5013948228865672  0.4999948684077573   T   T   T
  0.6318675569760618  0.5036226466907300  0.4999952883193287   T   T   T
  0.4444377991186790  0.4619280869403078  0.5000043256373510   T   T   T
  0.4429550296247964  0.5194686040169246  0.5000064378074207   T   T   T
  0.3982231748102583  0.5033024956669724  0.4777375626155625   T   T   T
  0.3978392482658977  0.5423794660805759  0.5000187776616495   T   T   T
  0.3982258899197535  0.5032835090298694  0.5222655345105086   T   T   T
  0.4968546115357040  0.5475898429780716  0.4999951821039646   T   T   T
  0.5581374303234563  0.5524334450593505  0.4999903088141829   T   T   T
  0.5666018879604632  0.4440877919510669  0.4999996785418823   T   T   T
  0.5049517666931077  0.4396256299089754  0.5000023857175621   T   T   T
 
  0.00000000E+00  0.00000000E+00  0.00000000E+00
  0.00000000E+00  0.00000000E+00  0.00000000E+00
  0.00000000E+00  0.00000000E+00  0.00000000E+00
  0.00000000E+00  0.00000000E+00  0.00000000E+00
  0.00000000E+00  0.00000000E+00  0.00000000E+00
  0.00000000E+00  0.00000000E+00  0.00000000E+00
  0.00000000E+00  0.00000000E+00  0.00000000E+00
  0.00000000E+00  0.00000000E+00  0.00000000E+00
  0.00000000E+00  0.00000000E+00  0.00000000E+00
  0.00000000E+00  0.00000000E+00  0.00000000E+00
  0.00000000E+00  0.00000000E+00  0.00000000E+00
  0.00000000E+00  0.00000000E+00  0.00000000E+00
  0.00000000E+00  0.00000000E+00  0.00000000E+00
  0.00000000E+00  0.00000000E+00  0.00000000E+00
  0.00000000E+00  0.00000000E+00  0.00000000E+00
  0.00000000E+00  0.00000000E+00  0.00000000E+00
  0.00000000E+00  0.00000000E+00  0.00000000E+00
  0.00000000E+00  0.00000000E+00  0.00000000E+00
  0.00000000E+00  0.00000000E+00  0.00000000E+00
