C H                                     
   1.00000000000000     
    40.0000000000000000    0.0000000000000000    0.0000000000000000
     0.0000000000000000   40.0000000000000000    0.0000000000000000
     0.0000000000000000    0.0000000000000000   40.0000000000000000
   C    H 
     9    12
Selective dynamics
Direct
  0.4730458687721197  0.4768847423569992  0.4999297633887501   T   T   T
  0.5051746459942029  0.4646174057068371  0.4999636302937290   T   T   T
  0.5131809846806189  0.4281914670536865  0.5000220581850181   T   T   T
  0.5319758230298673  0.4885087699825412  0.4999616413972900   T   T   T
  0.5267226442055740  0.5239559881885422  0.4998871904630746   T   T   T
  0.5557349468435349  0.5474870788188069  0.4999627353250216   T   T   T
  0.4940487281723846  0.5351200838532971  0.4998558448425791   T   T   T
  0.4667971550852675  0.5121555755395758  0.4998950875683970   T   T   T
  0.4319691965829801  0.5242933543020037  0.4999572849772371   T   T   T
  0.4905732143722972  0.4127988819556344  0.4991785998434973   T   T   T
  0.5275469143076366  0.4215773506893626  0.5225499996438675   T   T   T
  0.5291302873438282  0.4217879866990940  0.4785371093288648   T   T   T
  0.5797169059656697  0.5344016368646058  0.4983929869666968   T   T   T
  0.5538947984271428  0.5651141198808699  0.4789568980762898   T   T   T
  0.5556170439071920  0.5626500371649710  0.5229166956549379   T   T   T
  0.4180198713663104  0.5131835280478518  0.4788707145419818   T   T   T
  0.4299645837826966  0.5515418613571114  0.4990774452339946   T   T   T
  0.4188628455109386  0.5148413672485971  0.5223903918173897   T   T   T
  0.4886108243877509  0.5618385165091260  0.4997884000055561   T   T   T
  0.5576653586400260  0.4791959498110025  0.4999844849433335   T   T   T
  0.4517473586219543  0.4598542979694626  0.4999210375024790   T   T   T
 
  0.00000000E+00  0.00000000E+00  0.00000000E+00
  0.00000000E+00  0.00000000E+00  0.00000000E+00
  0.00000000E+00  0.00000000E+00  0.00000000E+00
  0.00000000E+00  0.00000000E+00  0.00000000E+00
  0.00000000E+00  0.00000000E+00  0.00000000E+00
  0.00000000E+00  0.00000000E+00  0.00000000E+00
  0.00000000E+00  0.00000000E+00  0.00000000E+00
  0.00000000E+00  0.00000000E+00  0.00000000E+00
  0.00000000E+00  0.00000000E+00  0.00000000E+00
  0.00000000E+00  0.00000000E+00  0.00000000E+00
  0.00000000E+00  0.00000000E+00  0.00000000E+00
  0.00000000E+00  0.00000000E+00  0.00000000E+00
  0.00000000E+00  0.00000000E+00  0.00000000E+00
  0.00000000E+00  0.00000000E+00  0.00000000E+00
  0.00000000E+00  0.00000000E+00  0.00000000E+00
  0.00000000E+00  0.00000000E+00  0.00000000E+00
  0.00000000E+00  0.00000000E+00  0.00000000E+00
  0.00000000E+00  0.00000000E+00  0.00000000E+00
  0.00000000E+00  0.00000000E+00  0.00000000E+00
  0.00000000E+00  0.00000000E+00  0.00000000E+00
  0.00000000E+00  0.00000000E+00  0.00000000E+00
