C N H                                   
   1.00000000000000     
    40.0000000000000000    0.0000000000000000    0.0000000000000000
     0.0000000000000000   40.0000000000000000    0.0000000000000000
     0.0000000000000000    0.0000000000000000   40.0000000000000000
   C    N    H 
     9     2    16
Selective dynamics
Direct
  0.5679554114934835  0.4779560591572043  0.5128468375057488   T   T   T
  0.5108432806343181  0.4808976035909556  0.4936631196391781   T   T   T
  0.4811420109299291  0.5342699260657794  0.4872880878396029   T   T   T
  0.4530044488588544  0.5275113258197131  0.5123346845595411   T   T   T
  0.4320550601392820  0.4964706734923184  0.5050815692085299   T   T   T
  0.4512165685190727  0.4635721757705119  0.5064468536460237   T   T   T
  0.4808646122217802  0.4619550848557725  0.4819344535977437   T   T   T
  0.5421607613179394  0.5326812406988555  0.5016696004196970   T   T   T
  0.5725135121157691  0.5111887859657386  0.4951575996046616   T   T   T
  0.5353647069044974  0.4637228251824511  0.5081044421433351   T   T   T
  0.5115643460341098  0.5143664127965945  0.4930509579777059   T   T   T
  0.4732395018582178  0.4712796376120119  0.4573678849997793   T   T   T
  0.4889558861265868  0.4361044049301911  0.4790304346076477   T   T   T
  0.4602932463323938  0.4587411308760859  0.5318172562298696   T   T   T
  0.4342961732931562  0.4431206660928855  0.5000220880448083   T   T   T
  0.4114196491241976  0.4954769903849212  0.5229748177326872   T   T   T
  0.4207766645350862  0.4991447550398455  0.4802400120361313   T   T   T
  0.4635960864293207  0.5265511587757221  0.5375582390942651   T   T   T
  0.4367819868560947  0.5494776271336076  0.5114003198121919   T   T   T
  0.4727223510570741  0.5294407274889403  0.4616855964370676   T   T   T
  0.4889659191621761  0.5602577018885168  0.4888068092263094   T   T   T
  0.5947945270134370  0.5239712751887416  0.5042404894205341   T   T   T
  0.5753207622319371  0.5071452532465131  0.4682799099298453   T   T   T
  0.5422350304018706  0.5552462437893543  0.4863718357410060   T   T   T
  0.5402066056256021  0.5403600290079974  0.5279003500705747   T   T   T
  0.5714997148139723  0.4798705293752815  0.5400379634860719   T   T   T
  0.5862101759698654  0.4592207557734867  0.5046877869894361   T   T   T
 
  0.00000000E+00  0.00000000E+00  0.00000000E+00
  0.00000000E+00  0.00000000E+00  0.00000000E+00
  0.00000000E+00  0.00000000E+00  0.00000000E+00
  0.00000000E+00  0.00000000E+00  0.00000000E+00
  0.00000000E+00  0.00000000E+00  0.00000000E+00
  0.00000000E+00  0.00000000E+00  0.00000000E+00
  0.00000000E+00  0.00000000E+00  0.00000000E+00
  0.00000000E+00  0.00000000E+00  0.00000000E+00
  0.00000000E+00  0.00000000E+00  0.00000000E+00
  0.00000000E+00  0.00000000E+00  0.00000000E+00
  0.00000000E+00  0.00000000E+00  0.00000000E+00
  0.00000000E+00  0.00000000E+00  0.00000000E+00
  0.00000000E+00  0.00000000E+00  0.00000000E+00
  0.00000000E+00  0.00000000E+00  0.00000000E+00
  0.00000000E+00  0.00000000E+00  0.00000000E+00
  0.00000000E+00  0.00000000E+00  0.00000000E+00
  0.00000000E+00  0.00000000E+00  0.00000000E+00
  0.00000000E+00  0.00000000E+00  0.00000000E+00
  0.00000000E+00  0.00000000E+00  0.00000000E+00
  0.00000000E+00  0.00000000E+00  0.00000000E+00
  0.00000000E+00  0.00000000E+00  0.00000000E+00
  0.00000000E+00  0.00000000E+00  0.00000000E+00
  0.00000000E+00  0.00000000E+00  0.00000000E+00
  0.00000000E+00  0.00000000E+00  0.00000000E+00
  0.00000000E+00  0.00000000E+00  0.00000000E+00
  0.00000000E+00  0.00000000E+00  0.00000000E+00
  0.00000000E+00  0.00000000E+00  0.00000000E+00
