C F O H                                 
   1.00000000000000     
    40.0000000000000000    0.0000000000000000    0.0000000000000000
     0.0000000000000000   40.0000000000000000    0.0000000000000000
     0.0000000000000000    0.0000000000000000   40.0000000000000000
   C    F    O    H 
     8     1     1     7
Selective dynamics
Direct
  0.5100567771076889  0.5232001554911885  0.5000057980647536   T   T   T
  0.5447729483165383  0.5239492605173142  0.5000102131922017   T   T   T
  0.5616616084066086  0.4937671522123535  0.5000040855640809   T   T   T
  0.5455467135788702  0.4630759649348575  0.4999995992128820   T   T   T
  0.5109310856965664  0.4628737439007097  0.4999964797643779   T   T   T
  0.4927534048749298  0.4927931761237243  0.4999989670130158   T   T   T
  0.4555650056490889  0.4910861233530420  0.4999955103894427   T   T   T
  0.4359790934859696  0.5232682451705116  0.4999961735569720   T   T   T
  0.5955937061998990  0.4942185972423426  0.5000033623188668   T   T   T
  0.4411905123086467  0.4639968373911002  0.4999948288597119   T   T   T
  0.4420183393915576  0.5383580868782978  0.5219671340504037   T   T   T
  0.4420259001030835  0.5383626411571937  0.4780280732477155   T   T   T
  0.4094240927486590  0.5174765318036391  0.4999896122194722   T   T   T
  0.4972884577695555  0.4394898604957204  0.4999929100007860   T   T   T
  0.5600326111879562  0.4402160884529763  0.4999981848996929   T   T   T
  0.5585992693764574  0.5472089902564359  0.5000131333723875   T   T   T
  0.4965604737979171  0.5466585446186144  0.5000069342732417   T   T   T
 
  0.00000000E+00  0.00000000E+00  0.00000000E+00
  0.00000000E+00  0.00000000E+00  0.00000000E+00
  0.00000000E+00  0.00000000E+00  0.00000000E+00
  0.00000000E+00  0.00000000E+00  0.00000000E+00
  0.00000000E+00  0.00000000E+00  0.00000000E+00
  0.00000000E+00  0.00000000E+00  0.00000000E+00
  0.00000000E+00  0.00000000E+00  0.00000000E+00
  0.00000000E+00  0.00000000E+00  0.00000000E+00
  0.00000000E+00  0.00000000E+00  0.00000000E+00
  0.00000000E+00  0.00000000E+00  0.00000000E+00
  0.00000000E+00  0.00000000E+00  0.00000000E+00
  0.00000000E+00  0.00000000E+00  0.00000000E+00
  0.00000000E+00  0.00000000E+00  0.00000000E+00
  0.00000000E+00  0.00000000E+00  0.00000000E+00
  0.00000000E+00  0.00000000E+00  0.00000000E+00
  0.00000000E+00  0.00000000E+00  0.00000000E+00
  0.00000000E+00  0.00000000E+00  0.00000000E+00
