!PBE0 def2-SV(p) Opt Freq d3 TightSCF SlowConv RIJCOSX defgrid2
 
%pal
nprocs 4
end
 
%scf
MaxIter 1500
end
 
%maxcore 3000
 

 
* xyz 1 2
C     0.8650938   -1.2079547    0.0001305 
C     1.2277804    0.1712891    0.0001480 
C     0.1955250    1.1293084    0.0001066 
C    -1.1364049    0.7772653   -0.0000024 
C    -1.4836883   -0.6125452    0.0000334 
C    -0.4522571   -1.5726724    0.0000935 
H    -0.7200302   -2.6184106    0.0001164 
C    -2.8896951   -1.0399796    0.0000029 
H    -2.9838783   -2.1225328    0.0003153 
H    -3.4140425   -0.6315064   -0.8683141 
H    -3.4143104   -0.6309262    0.8678763 
C    -2.1969908    1.8178604   -0.0001174 
H    -2.8364687    1.7165367    0.8769958 
H    -2.8368208    1.7160410   -0.8769090 
H    -1.7644868    2.8143448   -0.0004668 
H     0.4617260    2.1759515    0.0001109 
C     2.5885432    0.6191547    0.0002323 
C     3.6850981   -0.1700965   -0.0004018 
H     3.6383402   -1.2461562   -0.0011686 
H     4.6702997    0.2652848   -0.0002530 
H     2.7244709    1.6933900    0.0007848 
H     1.6294334   -1.9670749    0.0002199
*
