C O H                                   
   1.00000000000000     
    40.0000000000000000    0.0000000000000000    0.0000000000000000
     0.0000000000000000   40.0000000000000000    0.0000000000000000
     0.0000000000000000    0.0000000000000000   40.0000000000000000
   C    O    H 
    13     1    10
Selective dynamics
Direct
  0.4383818661912238  0.5311438759364818  0.5024639144626912   T   T   T
  0.4072830359167258  0.5161335832111414  0.5000641721161080   T   T   T
  0.4682558573901626  0.5131713630053023  0.4961097007424988   T   T   T
  0.4645188087841727  0.4795438519100143  0.4856787013717115   T   T   T
  0.4333119367188910  0.4647494142644836  0.4829685305748523   T   T   T
  0.4042136200235488  0.4826424783383452  0.4905186886793703   T   T   T
  0.5000911506447996  0.5310739038370993  0.4982463456873524   T   T   T
  0.5318310509874143  0.5133105273224025  0.5023196141680982   T   T   T
  0.5618260960707955  0.5302913728149774  0.4940995826064122   T   T   T
  0.5928391855371206  0.5154776434158752  0.4982336439747797   T   T   T
  0.5956845220372498  0.4832530027808203  0.5114929340613278   T   T   T
  0.5664634783855016  0.4664602402222586  0.5208538816468617   T   T   T
  0.5353440509624479  0.4810257201410165  0.5163862439698944   T   T   T
  0.5001825113997648  0.5630703024067404  0.4965777536264277   T   T   T
  0.4315144236727241  0.4390100625793334  0.4745128153069638   T   T   T
  0.3798569680777664  0.4709115272017355  0.4885851286922258   T   T   T
  0.4408779955603358  0.5572082037991245  0.5094358031759499   T   T   T
  0.3849837856214595  0.5305724661290591  0.5057283748917863   T   T   T
  0.4864450728177349  0.4652661706659943  0.4786624870631814   T   T   T
  0.5133064601999078  0.4677257142877413  0.5248350068656584   T   T   T
  0.6199648943072462  0.4716768234850767  0.5148136657561961   T   T   T
  0.5680831678827788  0.4417874773559311  0.5320877207197355   T   T   T
  0.5595040131032518  0.5554344428944916  0.4842789326228569   T   T   T
  0.6152380477069710  0.5290618319945479  0.4910463572170873   T   T   T
 
  0.00000000E+00  0.00000000E+00  0.00000000E+00
  0.00000000E+00  0.00000000E+00  0.00000000E+00
  0.00000000E+00  0.00000000E+00  0.00000000E+00
  0.00000000E+00  0.00000000E+00  0.00000000E+00
  0.00000000E+00  0.00000000E+00  0.00000000E+00
  0.00000000E+00  0.00000000E+00  0.00000000E+00
  0.00000000E+00  0.00000000E+00  0.00000000E+00
  0.00000000E+00  0.00000000E+00  0.00000000E+00
  0.00000000E+00  0.00000000E+00  0.00000000E+00
  0.00000000E+00  0.00000000E+00  0.00000000E+00
  0.00000000E+00  0.00000000E+00  0.00000000E+00
  0.00000000E+00  0.00000000E+00  0.00000000E+00
  0.00000000E+00  0.00000000E+00  0.00000000E+00
  0.00000000E+00  0.00000000E+00  0.00000000E+00
  0.00000000E+00  0.00000000E+00  0.00000000E+00
  0.00000000E+00  0.00000000E+00  0.00000000E+00
  0.00000000E+00  0.00000000E+00  0.00000000E+00
  0.00000000E+00  0.00000000E+00  0.00000000E+00
  0.00000000E+00  0.00000000E+00  0.00000000E+00
  0.00000000E+00  0.00000000E+00  0.00000000E+00
  0.00000000E+00  0.00000000E+00  0.00000000E+00
  0.00000000E+00  0.00000000E+00  0.00000000E+00
  0.00000000E+00  0.00000000E+00  0.00000000E+00
  0.00000000E+00  0.00000000E+00  0.00000000E+00
