C H                                     
   1.00000000000000     
    40.0000000000000000    0.0000000000000000    0.0000000000000000
     0.0000000000000000   40.0000000000000000    0.0000000000000000
     0.0000000000000000    0.0000000000000000   40.0000000000000000
   C    H 
    12    14
Selective dynamics
Direct
  0.5476676698172653  0.4686057147009208  0.4943889290369583   T   T   T
  0.5822264791440830  0.4689738751637620  0.4948270655849640   T   T   T
  0.5993402387404032  0.4989477766398167  0.5012855777061986   T   T   T
  0.5815656870018557  0.5288570948988962  0.5066560248704874   T   T   T
  0.5470463906585223  0.5288793010106687  0.5054346184441343   T   T   T
  0.5290167343929753  0.4986573160546257  0.4996508606361374   T   T   T
  0.4929715820096661  0.4990134854687511  0.4991847021436726   T   T   T
  0.4749747137382485  0.4694413552319503  0.5043901403776516   T   T   T
  0.4383995189971159  0.4677530375968502  0.5077304420430977   T   T   T
  0.4203779938166576  0.5014555036584625  0.5082016797169544   T   T   T
  0.4375958434264717  0.5258924226933033  0.4844465376589326   T   T   T
  0.4741175469202190  0.5312105357808932  0.4947531832417624   T   T   T
  0.4872159518333987  0.5470640318635986  0.4765266031559463   T   T   T
  0.4749162280185288  0.5450745100971943  0.5186842784105608   T   T   T
  0.4246944382159867  0.5501057435284551  0.4842059731229895   T   T   T
  0.4366652077250848  0.5161687969830240  0.4586827115354097   T   T   T
  0.3940148581661518  0.4979990464539767  0.5014650759883210   T   T   T
  0.4207202476672904  0.5116433416935564  0.5337808174813716   T   T   T
  0.4296842639804197  0.4520260766530910  0.4864783644913544   T   T   T
  0.4322658542792652  0.4519260862119765  0.5295416380319722   T   T   T
  0.4884607579376308  0.4458610917581112  0.5069921544092111   T   T   T
  0.5334992485436629  0.5520639274322505  0.5098751691027701   T   T   T
  0.5950544363359285  0.5519340257727308  0.5118440590955018   T   T   T
  0.6265705122594412  0.4990775914053955  0.5021364398794432   T   T   T
  0.5961465555472287  0.4460524469172000  0.4901304293402831   T   T   T
  0.5347890408265172  0.4453148643305553  0.4887065244939066   T   T   T
 
  0.00000000E+00  0.00000000E+00  0.00000000E+00
  0.00000000E+00  0.00000000E+00  0.00000000E+00
  0.00000000E+00  0.00000000E+00  0.00000000E+00
  0.00000000E+00  0.00000000E+00  0.00000000E+00
  0.00000000E+00  0.00000000E+00  0.00000000E+00
  0.00000000E+00  0.00000000E+00  0.00000000E+00
  0.00000000E+00  0.00000000E+00  0.00000000E+00
  0.00000000E+00  0.00000000E+00  0.00000000E+00
  0.00000000E+00  0.00000000E+00  0.00000000E+00
  0.00000000E+00  0.00000000E+00  0.00000000E+00
  0.00000000E+00  0.00000000E+00  0.00000000E+00
  0.00000000E+00  0.00000000E+00  0.00000000E+00
  0.00000000E+00  0.00000000E+00  0.00000000E+00
  0.00000000E+00  0.00000000E+00  0.00000000E+00
  0.00000000E+00  0.00000000E+00  0.00000000E+00
  0.00000000E+00  0.00000000E+00  0.00000000E+00
  0.00000000E+00  0.00000000E+00  0.00000000E+00
  0.00000000E+00  0.00000000E+00  0.00000000E+00
  0.00000000E+00  0.00000000E+00  0.00000000E+00
  0.00000000E+00  0.00000000E+00  0.00000000E+00
  0.00000000E+00  0.00000000E+00  0.00000000E+00
  0.00000000E+00  0.00000000E+00  0.00000000E+00
  0.00000000E+00  0.00000000E+00  0.00000000E+00
  0.00000000E+00  0.00000000E+00  0.00000000E+00
  0.00000000E+00  0.00000000E+00  0.00000000E+00
  0.00000000E+00  0.00000000E+00  0.00000000E+00
