C H                                     
   1.00000000000000     
    40.0000000000000000    0.0000000000000000    0.0000000000000000
     0.0000000000000000   40.0000000000000000    0.0000000000000000
     0.0000000000000000    0.0000000000000000   40.0000000000000000
   C    H 
    12    14
Selective dynamics
Direct
  0.5117543315913603  0.4671945867470710  0.4999966524559358   T   T   T
  0.5348814102393344  0.4942625717929410  0.4999958475910583   T   T   T
  0.5219739956372239  0.5274250942307956  0.4999922816301506   T   T   T
  0.4882451187489685  0.5328070564119249  0.4999886496292727   T   T   T
  0.4651200851785032  0.5057375505513116  0.4999917378171547   T   T   T
  0.4780258502403876  0.4725762536235372  0.4999961554025568   T   T   T
  0.4303527649229711  0.5133664700967531  0.4999900182397427   T   T   T
  0.4048041897395852  0.4906912526425909  0.5000099097938331   T   T   T
  0.3691883798060057  0.5001520455695752  0.5000084278019066   T   T   T
  0.5696476420794732  0.4866329850132399  0.4999996917511190   T   T   T
  0.5951960033721749  0.5093081568248130  0.5000026715967182   T   T   T
  0.6308116405471178  0.4998466060901557  0.5000067444193083   T   T   T
  0.4612069586041388  0.4513882865526699  0.4999961027615761   T   T   T
  0.3566406220750635  0.4891753736065091  0.4782558437752700   T   T   T
  0.3655120337223363  0.5271282017326876  0.4999866331762869   T   T   T
  0.3566556358536671  0.4892142552742668  0.5217877701024816   T   T   T
  0.4102670753186654  0.4641032029317678  0.5000222136633307   T   T   T
  0.4239168770113835  0.5397664667522326  0.4999736858789324   T   T   T
  0.4784722538054412  0.5580796509758781  0.4999820925063188   T   T   T
  0.5387935006055541  0.5486135944634440  0.4999924724017531   T   T   T
  0.6433492902070291  0.5108082852049755  0.5217713945401260   T   T   T
  0.6433533286469553  0.5108008065471045  0.4782405182237985   T   T   T
  0.6344891258120724  0.4728704233477006  0.5000108375070481   T   T   T
  0.5897334911513967  0.5358961759981451  0.4999972298877091   T   T   T
  0.5760812657837030  0.4602318037326845  0.5000032959444295   T   T   T
  0.5215271292994806  0.4419238432852435  0.5000001215021137   T   T   T
 
  0.00000000E+00  0.00000000E+00  0.00000000E+00
  0.00000000E+00  0.00000000E+00  0.00000000E+00
  0.00000000E+00  0.00000000E+00  0.00000000E+00
  0.00000000E+00  0.00000000E+00  0.00000000E+00
  0.00000000E+00  0.00000000E+00  0.00000000E+00
  0.00000000E+00  0.00000000E+00  0.00000000E+00
  0.00000000E+00  0.00000000E+00  0.00000000E+00
  0.00000000E+00  0.00000000E+00  0.00000000E+00
  0.00000000E+00  0.00000000E+00  0.00000000E+00
  0.00000000E+00  0.00000000E+00  0.00000000E+00
  0.00000000E+00  0.00000000E+00  0.00000000E+00
  0.00000000E+00  0.00000000E+00  0.00000000E+00
  0.00000000E+00  0.00000000E+00  0.00000000E+00
  0.00000000E+00  0.00000000E+00  0.00000000E+00
  0.00000000E+00  0.00000000E+00  0.00000000E+00
  0.00000000E+00  0.00000000E+00  0.00000000E+00
  0.00000000E+00  0.00000000E+00  0.00000000E+00
  0.00000000E+00  0.00000000E+00  0.00000000E+00
  0.00000000E+00  0.00000000E+00  0.00000000E+00
  0.00000000E+00  0.00000000E+00  0.00000000E+00
  0.00000000E+00  0.00000000E+00  0.00000000E+00
  0.00000000E+00  0.00000000E+00  0.00000000E+00
  0.00000000E+00  0.00000000E+00  0.00000000E+00
  0.00000000E+00  0.00000000E+00  0.00000000E+00
  0.00000000E+00  0.00000000E+00  0.00000000E+00
  0.00000000E+00  0.00000000E+00  0.00000000E+00
