C N O H                                 
   1.00000000000000     
    40.0000000000000000    0.0000000000000000    0.0000000000000000
     0.0000000000000000   40.0000000000000000    0.0000000000000000
     0.0000000000000000    0.0000000000000000   40.0000000000000000
   C    N    O    H 
    10     1     1    17
Selective dynamics
Direct
  0.4704932022035355  0.4688725822342691  0.5004417561500650   T   T   T
  0.4904453964271692  0.4999467367172702  0.5083249365335379   T   T   T
  0.4747364407484966  0.5311675043936337  0.5085506320388260   T   T   T
  0.4392896103043641  0.5364359643014713  0.4992069672371612   T   T   T
  0.4221398133240878  0.5057678904549261  0.4842109633580398   T   T   T
  0.4326894984552828  0.4744616244594129  0.5032763310096499   T   T   T
  0.5461991652719582  0.5243566125162847  0.5231901720015891   T   T   T
  0.5704227520956657  0.5297792754425592  0.4936875057490708   T   T   T
  0.5667458340450746  0.4730937707831201  0.4792261685436418   T   T   T
  0.5424133459762793  0.4661971574148014  0.5085152777268869   T   T   T
  0.5235379475719705  0.4967910915178744  0.5151394208602906   T   T   T
  0.5885618285280838  0.4999822558040619  0.4869645747214021   T   T   T
  0.4257233932816699  0.4768810234285230  0.5298110990124900   T   T   T
  0.4197855886983630  0.4522163327687282  0.4937034085945501   T   T   T
  0.4291273968746007  0.5032893606997468  0.4576875176418714   T   T   T
  0.3949171987603291  0.5090392909544035  0.4849472610443157   T   T   T
  0.4260048412564741  0.5448517222658968  0.5220682933961351   T   T   T
  0.4378832121400179  0.5583684627202621  0.4825246385124894   T   T   T
  0.4886701469152556  0.5534372175562136  0.5156881890125309   T   T   T
  0.5326877462921749  0.5473532673945088  0.5289010536059741   T   T   T
  0.5887071391594154  0.5490937912845204  0.5002969549932602   T   T   T
  0.5561810781443315  0.5379382706092093  0.4714292306061227   T   T   T
  0.5521616924848796  0.4784893195428159  0.4563650458460690   T   T   T
  0.5568147365181950  0.4597736136635229  0.5310056997846002   T   T   T
  0.5259200717630046  0.4454152969281094  0.5021423735183937   T   T   T
  0.5823248207391097  0.4509428860295860  0.4750128436471447   T   T   T
  0.5605651149816234  0.5169604044450424  0.5454077792722103   T   T   T
  0.4767250016171450  0.4604913616193272  0.4749045151933770   T   T   T
  0.4781279854214311  0.4486069120498953  0.5173723903883249   T   T   T
 
  0.00000000E+00  0.00000000E+00  0.00000000E+00
  0.00000000E+00  0.00000000E+00  0.00000000E+00
  0.00000000E+00  0.00000000E+00  0.00000000E+00
  0.00000000E+00  0.00000000E+00  0.00000000E+00
  0.00000000E+00  0.00000000E+00  0.00000000E+00
  0.00000000E+00  0.00000000E+00  0.00000000E+00
  0.00000000E+00  0.00000000E+00  0.00000000E+00
  0.00000000E+00  0.00000000E+00  0.00000000E+00
  0.00000000E+00  0.00000000E+00  0.00000000E+00
  0.00000000E+00  0.00000000E+00  0.00000000E+00
  0.00000000E+00  0.00000000E+00  0.00000000E+00
  0.00000000E+00  0.00000000E+00  0.00000000E+00
  0.00000000E+00  0.00000000E+00  0.00000000E+00
  0.00000000E+00  0.00000000E+00  0.00000000E+00
  0.00000000E+00  0.00000000E+00  0.00000000E+00
  0.00000000E+00  0.00000000E+00  0.00000000E+00
  0.00000000E+00  0.00000000E+00  0.00000000E+00
  0.00000000E+00  0.00000000E+00  0.00000000E+00
  0.00000000E+00  0.00000000E+00  0.00000000E+00
  0.00000000E+00  0.00000000E+00  0.00000000E+00
  0.00000000E+00  0.00000000E+00  0.00000000E+00
  0.00000000E+00  0.00000000E+00  0.00000000E+00
  0.00000000E+00  0.00000000E+00  0.00000000E+00
  0.00000000E+00  0.00000000E+00  0.00000000E+00
  0.00000000E+00  0.00000000E+00  0.00000000E+00
  0.00000000E+00  0.00000000E+00  0.00000000E+00
  0.00000000E+00  0.00000000E+00  0.00000000E+00
  0.00000000E+00  0.00000000E+00  0.00000000E+00
  0.00000000E+00  0.00000000E+00  0.00000000E+00
