C N H                                   
   1.00000000000000     
    40.0000000000000000    0.0000000000000000    0.0000000000000000
     0.0000000000000000   40.0000000000000000    0.0000000000000000
     0.0000000000000000    0.0000000000000000   40.0000000000000000
   C    N    H 
     6     1    15
Selective dynamics
Direct
  0.4467848051526611  0.4700134501685022  0.4923972921674073   T   T   T
  0.4686295143770434  0.5019946355303728  0.4932614454996954   T   T   T
  0.5320306571577496  0.4945821656588096  0.4916135899606003   T   T   T
  0.5437622023577142  0.5318199002790071  0.4899318573035061   T   T   T
  0.5575354769392928  0.4721241728965863  0.5088209268318097   T   T   T
  0.4515481441912227  0.5302391566813387  0.5130042154913650   T   T   T
  0.5002656500210722  0.4938597108332989  0.5084584260517232   T   T   T
  0.5001289438775213  0.4885754246778116  0.5335820867126337   T   T   T
  0.5481771366159151  0.5416133543976799  0.5151512542156051   T   T   T
  0.5254335098788837  0.5475565924038417  0.4769993467864067   T   T   T
  0.5672763140398007  0.5321240861811231  0.4758108707946787   T   T   T
  0.5488928959167531  0.4461258636136605  0.5098608099077043   T   T   T
  0.5809955595804777  0.4728028668142911  0.4946533543892864   T   T   T
  0.5629294470056531  0.4808385219423332  0.5343113569227861   T   T   T
  0.5272402802199360  0.4865133223799081  0.4656670050643651   T   T   T
  0.4669711336877614  0.5528935595421912  0.5133149304483600   T   T   T
  0.4462810418690381  0.5226131521708750  0.5388482821350764   T   T   T
  0.4276749626675257  0.5359503389615414  0.5007551796125785   T   T   T
  0.4740122958922541  0.5099849068949615  0.4675262247389970   T   T   T
  0.4590084484317269  0.4500038877785224  0.4782303718753179   T   T   T
  0.4412311129503293  0.4611718489330934  0.5177664779579889   T   T   T
  0.4231894671696427  0.4766010812602808  0.4800356951321125   T   T   T
 
  0.00000000E+00  0.00000000E+00  0.00000000E+00
  0.00000000E+00  0.00000000E+00  0.00000000E+00
  0.00000000E+00  0.00000000E+00  0.00000000E+00
  0.00000000E+00  0.00000000E+00  0.00000000E+00
  0.00000000E+00  0.00000000E+00  0.00000000E+00
  0.00000000E+00  0.00000000E+00  0.00000000E+00
  0.00000000E+00  0.00000000E+00  0.00000000E+00
  0.00000000E+00  0.00000000E+00  0.00000000E+00
  0.00000000E+00  0.00000000E+00  0.00000000E+00
  0.00000000E+00  0.00000000E+00  0.00000000E+00
  0.00000000E+00  0.00000000E+00  0.00000000E+00
  0.00000000E+00  0.00000000E+00  0.00000000E+00
  0.00000000E+00  0.00000000E+00  0.00000000E+00
  0.00000000E+00  0.00000000E+00  0.00000000E+00
  0.00000000E+00  0.00000000E+00  0.00000000E+00
  0.00000000E+00  0.00000000E+00  0.00000000E+00
  0.00000000E+00  0.00000000E+00  0.00000000E+00
  0.00000000E+00  0.00000000E+00  0.00000000E+00
  0.00000000E+00  0.00000000E+00  0.00000000E+00
  0.00000000E+00  0.00000000E+00  0.00000000E+00
  0.00000000E+00  0.00000000E+00  0.00000000E+00
  0.00000000E+00  0.00000000E+00  0.00000000E+00
