!r2SCANh aug-cc-pVTZ d3 TightSCF SlowConv RIJCOSX defgrid2
 
%pal
nprocs 4
end
 
%scf
MaxIter 1500
end
 
%maxcore 3000
 
!CPCM
%cpcm smd true
SMDsolvent "MeCN"
surfacetype gepol_ses
rsolv 2.19
end 
 
* xyz 0 1
C           0.42903816797988     -1.14370342260353     -0.19375133840947
N           1.23090536349830     -0.00018108549555      0.21241157549017
H           1.32661660064153     -0.00085078462932      1.22885627448115
C           0.42918767964663      1.14398838233565     -0.19235272832111
C          -1.04960974603338      0.77261574951429      0.06492785280490
C          -1.04906283726916     -0.77294678133786      0.06683505909787
H          -1.38035607535846     -1.16390392177494      1.04420027054079
H          -1.72458244369567     -1.20024957174541     -0.69292350481507
H          -1.38487048878375      1.16593613289024      1.03994785440171
H          -1.72261217593395      1.19722636930467     -0.69855684493278
H           0.59041632586080      1.31476098653939     -1.27323726969509
H           0.75473592936517      2.05790809606369      0.33083351670359
H           0.58863701367587     -1.31196075363090     -1.27529624277050
H           0.75559928640620     -2.05873729543043      0.32686602542384
*
