C H                                     
   1.00000000000000     
    40.0000000000000000    0.0000000000000000    0.0000000000000000
     0.0000000000000000   40.0000000000000000    0.0000000000000000
     0.0000000000000000    0.0000000000000000   40.0000000000000000
   C    H 
     6     6
Selective dynamics
Direct
  0.4683762132473534  0.5163631625727986  0.5000000000000000   T   T   T
  0.4991398458258304  0.5346167128908043  0.5000000000000000   T   T   T
  0.5307712622923924  0.5179496454102132  0.5000000000000000   T   T   T
  0.5316237867526465  0.4836368374272015  0.5000000000000000   T   T   T
  0.5008601541741696  0.4653832871091958  0.5000000000000000   T   T   T
  0.4692287377076078  0.4820503545897869  0.5000000000000000   T   T   T
  0.4463415597749182  0.4673319248031018  0.5000000000000000   T   T   T
  0.5015547259107803  0.4381213973302325  0.5000000000000000   T   T   T
  0.5552183024042026  0.4700768089694233  0.4999990000000025   T   T   T
  0.5536584402250889  0.5326680751968982  0.5000000000000000   T   T   T
  0.4984452740892268  0.5618786026697675  0.5000000000000000   T   T   T
  0.4447816975957974  0.5299231910305838  0.5000000000000000   T   T   T
 
  0.00000000E+00  0.00000000E+00  0.00000000E+00
  0.00000000E+00  0.00000000E+00  0.00000000E+00
  0.00000000E+00  0.00000000E+00  0.00000000E+00
  0.00000000E+00  0.00000000E+00  0.00000000E+00
  0.00000000E+00  0.00000000E+00  0.00000000E+00
  0.00000000E+00  0.00000000E+00  0.00000000E+00
  0.00000000E+00  0.00000000E+00  0.00000000E+00
  0.00000000E+00  0.00000000E+00  0.00000000E+00
  0.00000000E+00  0.00000000E+00  0.00000000E+00
  0.00000000E+00  0.00000000E+00  0.00000000E+00
  0.00000000E+00  0.00000000E+00  0.00000000E+00
  0.00000000E+00  0.00000000E+00  0.00000000E+00
