C N O H                                 
   1.00000000000000     
    40.0000000000000000    0.0000000000000000    0.0000000000000000
     0.0000000000000000   40.0000000000000000    0.0000000000000000
     0.0000000000000000    0.0000000000000000   40.0000000000000000
   C    N    O    H 
     8     1     3     7
Selective dynamics
Direct
  0.5011404067728388  0.4633937613039094  0.4999858511270737   T   T   T
  0.4667955829713307  0.4633952721059595  0.5000112980229922   T   T   T
  0.4492814704391538  0.4940961968444612  0.5000404130927127   T   T   T
  0.4672850855906183  0.5244767765271172  0.5000395751588470   T   T   T
  0.5017286731763659  0.5239635406531850  0.5000202216903323   T   T   T
  0.5197070382269269  0.4935198634777090  0.4999943910837879   T   T   T
  0.5561720073194630  0.4920898612614397  0.4999639107652947   T   T   T
  0.5759599109240319  0.5242663686229883  0.4999429218230288   T   T   T
  0.4144531656426654  0.4943114645515316  0.5000539061406749   T   T   T
  0.5712979401846207  0.4648317219695871  0.4999557326692093   T   T   T
  0.3987955230352744  0.5223140763210735  0.5000635894774773   T   T   T
  0.3984662793859688  0.4664884345793058  0.5000525032446669   T   T   T
  0.5702017163390593  0.5394456804343774  0.5219374627295721   T   T   T
  0.6025093860023359  0.5183096940907720  0.4998805701050736   T   T   T
  0.5701014584543704  0.5394885735522509  0.4780082844305028   T   T   T
  0.5150340114833882  0.5475798174657435  0.5000204364973425   T   T   T
  0.4536272960073841  0.5478049700158187  0.5000618255611531   T   T   T
  0.4527577056903890  0.4402976741684477  0.5000016088636808   T   T   T
  0.5146843423538174  0.4399302520543487  0.4999644975165795   T   T   T
 
  0.00000000E+00  0.00000000E+00  0.00000000E+00
  0.00000000E+00  0.00000000E+00  0.00000000E+00
  0.00000000E+00  0.00000000E+00  0.00000000E+00
  0.00000000E+00  0.00000000E+00  0.00000000E+00
  0.00000000E+00  0.00000000E+00  0.00000000E+00
  0.00000000E+00  0.00000000E+00  0.00000000E+00
  0.00000000E+00  0.00000000E+00  0.00000000E+00
  0.00000000E+00  0.00000000E+00  0.00000000E+00
  0.00000000E+00  0.00000000E+00  0.00000000E+00
  0.00000000E+00  0.00000000E+00  0.00000000E+00
  0.00000000E+00  0.00000000E+00  0.00000000E+00
  0.00000000E+00  0.00000000E+00  0.00000000E+00
  0.00000000E+00  0.00000000E+00  0.00000000E+00
  0.00000000E+00  0.00000000E+00  0.00000000E+00
  0.00000000E+00  0.00000000E+00  0.00000000E+00
  0.00000000E+00  0.00000000E+00  0.00000000E+00
  0.00000000E+00  0.00000000E+00  0.00000000E+00
  0.00000000E+00  0.00000000E+00  0.00000000E+00
  0.00000000E+00  0.00000000E+00  0.00000000E+00
