C F O H                                 
   1.00000000000000     
    40.0000000000000000    0.0000000000000000    0.0000000000000000
     0.0000000000000000   40.0000000000000000    0.0000000000000000
     0.0000000000000000    0.0000000000000000   40.0000000000000000
   C    F    O    H 
     8     1     1     7
Selective dynamics
Direct
  0.5100896926880804  0.5234269072212664  0.5000044956208842   T   T   T
  0.5448655646650575  0.5240414992598722  0.5000100065106372   T   T   T
  0.5623132967885958  0.4937053664864373  0.5000062654212141   T   T   T
  0.5458620440818441  0.4628356940194338  0.5000024327002829   T   T   T
  0.5111490423606082  0.4623001463295691  0.4999977946306332   T   T   T
  0.4916347473274905  0.4925584297732660  0.4999990474414819   T   T   T
  0.4557557641565118  0.4910456435054965  0.4999948542038108   T   T   T
  0.4359909566645513  0.5235663720560123  0.4999956654688179   T   T   T
  0.5972122002043119  0.4942863734915693  0.5000059921558044   T   T   T
  0.4395868087381413  0.4630368672905615  0.4999916973474431   T   T   T
  0.4413925464010964  0.5392200200346281  0.5221017931146954   T   T   T
  0.4413998266458286  0.5392251218602127  0.4778924434171199   T   T   T
  0.4091878610545844  0.5176749589415213  0.4999893155873573   T   T   T
  0.4978498638066066  0.4384975021237001  0.4999949274291822   T   T   T
  0.5603783500612558  0.4397136767283191  0.5000008490130228   T   T   T
  0.5585773850850154  0.5476418101557554  0.5000106635838573   T   T   T
  0.4967540492704265  0.5472236107223933  0.5000027563537675   T   T   T
 
  0.00000000E+00  0.00000000E+00  0.00000000E+00
  0.00000000E+00  0.00000000E+00  0.00000000E+00
  0.00000000E+00  0.00000000E+00  0.00000000E+00
  0.00000000E+00  0.00000000E+00  0.00000000E+00
  0.00000000E+00  0.00000000E+00  0.00000000E+00
  0.00000000E+00  0.00000000E+00  0.00000000E+00
  0.00000000E+00  0.00000000E+00  0.00000000E+00
  0.00000000E+00  0.00000000E+00  0.00000000E+00
  0.00000000E+00  0.00000000E+00  0.00000000E+00
  0.00000000E+00  0.00000000E+00  0.00000000E+00
  0.00000000E+00  0.00000000E+00  0.00000000E+00
  0.00000000E+00  0.00000000E+00  0.00000000E+00
  0.00000000E+00  0.00000000E+00  0.00000000E+00
  0.00000000E+00  0.00000000E+00  0.00000000E+00
  0.00000000E+00  0.00000000E+00  0.00000000E+00
  0.00000000E+00  0.00000000E+00  0.00000000E+00
  0.00000000E+00  0.00000000E+00  0.00000000E+00
