C O H                                   
   1.00000000000000     
    40.0000000000000000    0.0000000000000000    0.0000000000000000
     0.0000000000000000   40.0000000000000000    0.0000000000000000
     0.0000000000000000    0.0000000000000000   40.0000000000000000
   C    O    H 
    12     1    10
Selective dynamics
Direct
  0.5333744484872522  0.4841913876920646  0.5167985224654175   T   T   T
  0.5646395519525663  0.4697847641699789  0.5172824989490797   T   T   T
  0.5916469158335472  0.4858819665547913  0.5021108521159179   T   T   T
  0.5875461691818108  0.5171773013711185  0.4869387273232439   T   T   T
  0.5566897536963520  0.5323354335425269  0.4866584650897960   T   T   T
  0.5295858008584172  0.5152662191525366  0.5008744610175709   T   T   T
  0.4704302035998107  0.5153059212409660  0.4991949603079523   T   T   T
  0.4433093507275791  0.5323940737925784  0.5133729046882197   T   T   T
  0.4124436471697999  0.5172595857528093  0.5130253386244400   T   T   T
  0.4083432140531844  0.4859674811126332  0.4978402940839032   T   T   T
  0.4353625775965372  0.4698655539869107  0.4826904118316027   T   T   T
  0.4666349018588454  0.4842455752175571  0.4832342595731358   T   T   T
  0.5000108407043627  0.5314077243601824  0.5000766814404325   T   T   T
  0.4875241513872725  0.4728768952091059  0.4703649420271983   T   T   T
  0.4316784325398847  0.4462977985094224  0.4699393255545201   T   T   T
  0.3838589062573162  0.4744291221376848  0.4973306083482689   T   T   T
  0.3912592525725711  0.5295549149710305  0.5245207321807706   T   T   T
  0.4474375074762947  0.5564958519980753  0.5249409221629172   T   T   T
  0.5525620940073550  0.5564518463037798  0.4751163028775974   T   T   T
  0.6087205906375345  0.5294566556837502  0.4754084357699655   T   T   T
  0.6161232837815398  0.4743190868843438  0.5025770359160108   T   T   T
  0.5683233282886645  0.4462051888225588  0.5300103843261781   T   T   T
  0.5124930773315137  0.4728306515335272  0.5296919333258485   T   T   T
 
  0.00000000E+00  0.00000000E+00  0.00000000E+00
  0.00000000E+00  0.00000000E+00  0.00000000E+00
  0.00000000E+00  0.00000000E+00  0.00000000E+00
  0.00000000E+00  0.00000000E+00  0.00000000E+00
  0.00000000E+00  0.00000000E+00  0.00000000E+00
  0.00000000E+00  0.00000000E+00  0.00000000E+00
  0.00000000E+00  0.00000000E+00  0.00000000E+00
  0.00000000E+00  0.00000000E+00  0.00000000E+00
  0.00000000E+00  0.00000000E+00  0.00000000E+00
  0.00000000E+00  0.00000000E+00  0.00000000E+00
  0.00000000E+00  0.00000000E+00  0.00000000E+00
  0.00000000E+00  0.00000000E+00  0.00000000E+00
  0.00000000E+00  0.00000000E+00  0.00000000E+00
  0.00000000E+00  0.00000000E+00  0.00000000E+00
  0.00000000E+00  0.00000000E+00  0.00000000E+00
  0.00000000E+00  0.00000000E+00  0.00000000E+00
  0.00000000E+00  0.00000000E+00  0.00000000E+00
  0.00000000E+00  0.00000000E+00  0.00000000E+00
  0.00000000E+00  0.00000000E+00  0.00000000E+00
  0.00000000E+00  0.00000000E+00  0.00000000E+00
  0.00000000E+00  0.00000000E+00  0.00000000E+00
  0.00000000E+00  0.00000000E+00  0.00000000E+00
  0.00000000E+00  0.00000000E+00  0.00000000E+00
