C N O H                                 
   1.00000000000000     
    40.0000000000000000    0.0000000000000000    0.0000000000000000
     0.0000000000000000   40.0000000000000000    0.0000000000000000
     0.0000000000000000    0.0000000000000000   40.0000000000000000
   C    N    O    H 
     7     1     1     9
Selective dynamics
Direct
  0.5452735692797153  0.5240897253872847  0.4998371013892092   T   T   T
  0.5164785926587379  0.5428500934800284  0.5006592770434785   T   T   T
  0.4851754642648317  0.5273193896048949  0.5009703606028861   T   T   T
  0.4828793181901419  0.4916395569744361  0.5006088399993873   T   T   T
  0.5113779722757669  0.4723199367948263  0.4998136274658324   T   T   T
  0.5428458608485991  0.4881635851641161  0.4992517097090655   T   T   T
  0.4227048811142568  0.4939669076470746  0.5008870703473968   T   T   T
  0.5708919010488649  0.4704163532414921  0.4980265736313926   T   T   T
  0.4535857695156844  0.4752859890145125  0.5009955070990075   T   T   T
  0.5703826592963738  0.4451406362713538  0.4973701924276152   T   T   T
  0.5934646970927253  0.4817759959923058  0.4974571776998655   T   T   T
  0.5095622694970741  0.4453137661780407  0.4994776587430669   T   T   T
  0.4031802531999351  0.4751168223815055  0.5008490310387449   T   T   T
  0.4209700753307912  0.5093134407751680  0.4784252634710223   T   T   T
  0.4207910590031617  0.5094044996643327  0.5232715196462340   T   T   T
  0.4627958990957033  0.5424348590342157  0.5014954793902412   T   T   T
  0.5178811639205814  0.5698662813628605  0.5010454257488712   T   T   T
  0.5697595943670685  0.5355811610315401  0.4995571845467063   T   T   T
 
  0.00000000E+00  0.00000000E+00  0.00000000E+00
  0.00000000E+00  0.00000000E+00  0.00000000E+00
  0.00000000E+00  0.00000000E+00  0.00000000E+00
  0.00000000E+00  0.00000000E+00  0.00000000E+00
  0.00000000E+00  0.00000000E+00  0.00000000E+00
  0.00000000E+00  0.00000000E+00  0.00000000E+00
  0.00000000E+00  0.00000000E+00  0.00000000E+00
  0.00000000E+00  0.00000000E+00  0.00000000E+00
  0.00000000E+00  0.00000000E+00  0.00000000E+00
  0.00000000E+00  0.00000000E+00  0.00000000E+00
  0.00000000E+00  0.00000000E+00  0.00000000E+00
  0.00000000E+00  0.00000000E+00  0.00000000E+00
  0.00000000E+00  0.00000000E+00  0.00000000E+00
  0.00000000E+00  0.00000000E+00  0.00000000E+00
  0.00000000E+00  0.00000000E+00  0.00000000E+00
  0.00000000E+00  0.00000000E+00  0.00000000E+00
  0.00000000E+00  0.00000000E+00  0.00000000E+00
  0.00000000E+00  0.00000000E+00  0.00000000E+00
