C N H                                   
   1.00000000000000     
    40.0000000000000000    0.0000000000000000    0.0000000000000000
     0.0000000000000000   40.0000000000000000    0.0000000000000000
     0.0000000000000000    0.0000000000000000   40.0000000000000000
   C    N    H 
     3     2     4
Selective dynamics
Direct
  0.5048970712724667  0.5246247278646976  0.5000009999999975   T   T   T
  0.5253173034457816  0.4965150790983941  0.5000000000000000   T   T   T
  0.5028791500812275  0.4692337745883890  0.5000009999999975   T   T   T
  0.4708670150498406  0.4794975205061363  0.4999990000000025   T   T   T
  0.4729434638371757  0.5132525010124454  0.4999990000000025   T   T   T
  0.4516831235186203  0.5271170441606401  0.4999990000000025   T   T   T
  0.5084379123087857  0.4426280868885897  0.5000009999999975   T   T   T
  0.5524289853403843  0.4959764425171684  0.5000000000000000   T   T   T
  0.5105449751457130  0.5511538233635491  0.5000009999999975   T   T   T
 
  0.00000000E+00  0.00000000E+00  0.00000000E+00
  0.00000000E+00  0.00000000E+00  0.00000000E+00
  0.00000000E+00  0.00000000E+00  0.00000000E+00
  0.00000000E+00  0.00000000E+00  0.00000000E+00
  0.00000000E+00  0.00000000E+00  0.00000000E+00
  0.00000000E+00  0.00000000E+00  0.00000000E+00
  0.00000000E+00  0.00000000E+00  0.00000000E+00
  0.00000000E+00  0.00000000E+00  0.00000000E+00
  0.00000000E+00  0.00000000E+00  0.00000000E+00
