C H                                     
   1.00000000000000     
    40.0000000000000000    0.0000000000000000    0.0000000000000000
     0.0000000000000000   40.0000000000000000    0.0000000000000000
     0.0000000000000000    0.0000000000000000   40.0000000000000000
   C    H 
     8    10
Selective dynamics
Direct
  0.4452785749149442  0.4820359700591155  0.5000009157873393   T   T   T
  0.4750566485445873  0.4644749347228583  0.5000005364039026   T   T   T
  0.5057192721366093  0.4815548795237774  0.4999997873856614   T   T   T
  0.5376456827288365  0.4629681224624562  0.4999981708036145   T   T   T
  0.5057193255387347  0.5184448844031451  0.5000004051416340   T   T   T
  0.5376455005528200  0.5370317664799842  0.5000001930902300   T   T   T
  0.4750568325727826  0.5355252025500903  0.5000012806698635   T   T   T
  0.4452782831306479  0.5179640213461241  0.5000013754990960   T   T   T
  0.5530394062420498  0.4697774687982346  0.5218633633791683   T   T   T
  0.5337309659216061  0.4359109965422050  0.5000003043109942   T   T   T
  0.5530357088499187  0.4697745636788113  0.4781294903324493   T   T   T
  0.5530385155218838  0.5302222609976539  0.4781346058324516   T   T   T
  0.5337309496462339  0.5640888792613268  0.4999983395436018   T   T   T
  0.5530364391285190  0.5302253543776558  0.5218683008815290   T   T   T
  0.4214867491845453  0.5312202824208043  0.5000013071251743   T   T   T
  0.4750081750200437  0.5627638289853465  0.5000012208110576   T   T   T
  0.4750082554948207  0.4372361013508339  0.5000001430382781   T   T   T
  0.4214867148704045  0.4687794820395652  0.5000012599639376   T   T   T
 
  0.00000000E+00  0.00000000E+00  0.00000000E+00
  0.00000000E+00  0.00000000E+00  0.00000000E+00
  0.00000000E+00  0.00000000E+00  0.00000000E+00
  0.00000000E+00  0.00000000E+00  0.00000000E+00
  0.00000000E+00  0.00000000E+00  0.00000000E+00
  0.00000000E+00  0.00000000E+00  0.00000000E+00
  0.00000000E+00  0.00000000E+00  0.00000000E+00
  0.00000000E+00  0.00000000E+00  0.00000000E+00
  0.00000000E+00  0.00000000E+00  0.00000000E+00
  0.00000000E+00  0.00000000E+00  0.00000000E+00
  0.00000000E+00  0.00000000E+00  0.00000000E+00
  0.00000000E+00  0.00000000E+00  0.00000000E+00
  0.00000000E+00  0.00000000E+00  0.00000000E+00
  0.00000000E+00  0.00000000E+00  0.00000000E+00
  0.00000000E+00  0.00000000E+00  0.00000000E+00
  0.00000000E+00  0.00000000E+00  0.00000000E+00
  0.00000000E+00  0.00000000E+00  0.00000000E+00
  0.00000000E+00  0.00000000E+00  0.00000000E+00
