C O H                                   
   1.00000000000000     
    40.0000000000000000    0.0000000000000000    0.0000000000000000
     0.0000000000000000   40.0000000000000000    0.0000000000000000
     0.0000000000000000    0.0000000000000000   40.0000000000000000
   C    O    H 
     4     1     4
Selective dynamics
Direct
  0.4851473725422650  0.4728506537833255  0.5000000000000000   T   T   T
  0.5191470567815060  0.4827006795407343  0.5000000000000000   T   T   T
  0.5191460567815014  0.5173003204592632  0.5000000000000000   T   T   T
  0.4851453725422630  0.5271483462166699  0.5000000000000000   T   T   T
  0.4647243996222770  0.4999990000000025  0.5000000000000000   T   T   T
  0.4729840615730936  0.5514473516881679  0.5000000000000000   T   T   T
  0.5403578092920185  0.5342184698177945  0.4999990000000025   T   T   T
  0.5403598092920134  0.4657845301822050  0.5000000000000000   T   T   T
  0.4729870615730931  0.4485506483118300  0.5000000000000000   T   T   T
 
  0.00000000E+00  0.00000000E+00  0.00000000E+00
  0.00000000E+00  0.00000000E+00  0.00000000E+00
  0.00000000E+00  0.00000000E+00  0.00000000E+00
  0.00000000E+00  0.00000000E+00  0.00000000E+00
  0.00000000E+00  0.00000000E+00  0.00000000E+00
  0.00000000E+00  0.00000000E+00  0.00000000E+00
  0.00000000E+00  0.00000000E+00  0.00000000E+00
  0.00000000E+00  0.00000000E+00  0.00000000E+00
  0.00000000E+00  0.00000000E+00  0.00000000E+00
