C H                                     
   1.00000000000000     
    40.0000000000000000    0.0000000000000000    0.0000000000000000
     0.0000000000000000   40.0000000000000000    0.0000000000000000
     0.0000000000000000    0.0000000000000000   40.0000000000000000
   C    H 
    14    12
Selective dynamics
Direct
  0.5606501579437051  0.4777034363858945  0.5150547292669074   T   T   T
  0.5315677816016873  0.4903374383977379  0.4991304409822135   T   T   T
  0.5335986505136461  0.5211501300034840  0.4815207526149834   T   T   T
  0.5635221620920419  0.5385773235985525  0.4800402235970509   T   T   T
  0.5918614393834432  0.5259753030951586  0.4963868823651936   T   T   T
  0.5902545388693525  0.4956178347420277  0.5140240986923459   T   T   T
  0.5000000000000000  0.4720969791715817  0.5000000000000000   T   T   T
  0.5000000000000000  0.4374395731550962  0.4999990000000025   T   T   T
  0.4684322183983198  0.4903374383977379  0.5008695590177865   T   T   T
  0.4393498420562949  0.4777044363858991  0.4849452707330926   T   T   T
  0.4097454611306475  0.4956188347420252  0.4859759013076541   T   T   T
  0.4081385606165568  0.5259763030951561  0.5036131176348064   T   T   T
  0.4364778379079581  0.5385773235985525  0.5199607764029608   T   T   T
  0.4664013494863539  0.5211501300034840  0.5184802473850141   T   T   T
  0.6122694591951614  0.4862761275959713  0.5270362357719378   T   T   T
  0.6153771499456795  0.5396770920439309  0.4952071130017259   T   T   T
  0.5650682217968566  0.5618212588936444  0.4659331417937693   T   T   T
  0.5117360851267918  0.5303116635507976  0.4680747664344054   T   T   T
  0.4767564081359694  0.4232762930547196  0.4993836347989955   T   T   T
  0.5232425918640331  0.4232752930547150  0.5006143652010024   T   T   T
  0.4882639148732082  0.5303106635508001  0.5319262335655921   T   T   T
  0.4349317782031434  0.5618202588936470  0.5340688582062327   T   T   T
  0.3846228500543205  0.5396780920439355  0.5047938869982715   T   T   T
  0.3877305408048386  0.4862771275959688  0.4729627642280647   T   T   T
  0.4406859468134954  0.4545063224747352  0.4707361933827912   T   T   T
  0.5593140531865046  0.4545053224747377  0.5292618066172068   T   T   T
 
  0.00000000E+00  0.00000000E+00  0.00000000E+00
  0.00000000E+00  0.00000000E+00  0.00000000E+00
  0.00000000E+00  0.00000000E+00  0.00000000E+00
  0.00000000E+00  0.00000000E+00  0.00000000E+00
  0.00000000E+00  0.00000000E+00  0.00000000E+00
  0.00000000E+00  0.00000000E+00  0.00000000E+00
  0.00000000E+00  0.00000000E+00  0.00000000E+00
  0.00000000E+00  0.00000000E+00  0.00000000E+00
  0.00000000E+00  0.00000000E+00  0.00000000E+00
  0.00000000E+00  0.00000000E+00  0.00000000E+00
  0.00000000E+00  0.00000000E+00  0.00000000E+00
  0.00000000E+00  0.00000000E+00  0.00000000E+00
  0.00000000E+00  0.00000000E+00  0.00000000E+00
  0.00000000E+00  0.00000000E+00  0.00000000E+00
  0.00000000E+00  0.00000000E+00  0.00000000E+00
  0.00000000E+00  0.00000000E+00  0.00000000E+00
  0.00000000E+00  0.00000000E+00  0.00000000E+00
  0.00000000E+00  0.00000000E+00  0.00000000E+00
  0.00000000E+00  0.00000000E+00  0.00000000E+00
  0.00000000E+00  0.00000000E+00  0.00000000E+00
  0.00000000E+00  0.00000000E+00  0.00000000E+00
  0.00000000E+00  0.00000000E+00  0.00000000E+00
  0.00000000E+00  0.00000000E+00  0.00000000E+00
  0.00000000E+00  0.00000000E+00  0.00000000E+00
  0.00000000E+00  0.00000000E+00  0.00000000E+00
  0.00000000E+00  0.00000000E+00  0.00000000E+00
