C H                                     
   1.00000000000000     
    40.0000000000000000    0.0000000000000000    0.0000000000000000
     0.0000000000000000   40.0000000000000000    0.0000000000000000
     0.0000000000000000    0.0000000000000000   40.0000000000000000
   C    H 
    14    12
Selective dynamics
Direct
  0.5598492011310356  0.4795446658422757  0.5169143931808193   T   T   T
  0.5317472863592181  0.4904350979606632  0.4990748379579728   T   T   T
  0.5344937352971820  0.5194930936758196  0.4796864109241563   T   T   T
  0.5645576970866462  0.5368231040224328  0.4777920774622807   T   T   T
  0.5923624711044114  0.5256603172730417  0.4955490685658464   T   T   T
  0.5898742388132240  0.4969770858248075  0.5151526741489683   T   T   T
  0.5000000000000000  0.4713783683986340  0.5000000000000000   T   T   T
  0.5000000000000000  0.4378016313710407  0.4999990000000025   T   T   T
  0.4682527136407819  0.4904350979606632  0.5009251620420275   T   T   T
  0.4401507988689645  0.4795456658422803  0.4830856068191808   T   T   T
  0.4101257611867759  0.4969780858248050  0.4848473258510319   T   T   T
  0.4076375288955886  0.5256613172730392  0.5044509314341606   T   T   T
  0.4354423029133541  0.5368231040224328  0.5222089225377309   T   T   T
  0.4655062647028181  0.5194930936758196  0.5203145890758484   T   T   T
  0.6113037785283432  0.4883586571630044  0.5293665870557527   T   T   T
  0.6157435906509151  0.5393410824204198  0.4942668232168002   T   T   T
  0.5662818945873626  0.5591115122818607  0.4624347149445591   T   T   T
  0.5129465900698346  0.5283093593992956  0.4657754649715730   T   T   T
  0.4768842445290442  0.4237913888100703  0.5017869497090796   T   T   T
  0.5231147554709581  0.4237903888100658  0.4982110502909183   T   T   T
  0.4870534099301654  0.5283083593992981  0.5342255350284247   T   T   T
  0.4337181054126445  0.5591105122818633  0.5375672850554358   T   T   T
  0.3842564093490848  0.5393420824204244  0.5057341767831971   T   T   T
  0.3886962214716567  0.4883596571630018  0.4706324129442498   T   T   T
  0.4421161545503753  0.4575631354414645  0.4673301837302074   T   T   T
  0.5578838454496248  0.4575621354414671  0.5326678162697907   T   T   T
 
  0.00000000E+00  0.00000000E+00  0.00000000E+00
  0.00000000E+00  0.00000000E+00  0.00000000E+00
  0.00000000E+00  0.00000000E+00  0.00000000E+00
  0.00000000E+00  0.00000000E+00  0.00000000E+00
  0.00000000E+00  0.00000000E+00  0.00000000E+00
  0.00000000E+00  0.00000000E+00  0.00000000E+00
  0.00000000E+00  0.00000000E+00  0.00000000E+00
  0.00000000E+00  0.00000000E+00  0.00000000E+00
  0.00000000E+00  0.00000000E+00  0.00000000E+00
  0.00000000E+00  0.00000000E+00  0.00000000E+00
  0.00000000E+00  0.00000000E+00  0.00000000E+00
  0.00000000E+00  0.00000000E+00  0.00000000E+00
  0.00000000E+00  0.00000000E+00  0.00000000E+00
  0.00000000E+00  0.00000000E+00  0.00000000E+00
  0.00000000E+00  0.00000000E+00  0.00000000E+00
  0.00000000E+00  0.00000000E+00  0.00000000E+00
  0.00000000E+00  0.00000000E+00  0.00000000E+00
  0.00000000E+00  0.00000000E+00  0.00000000E+00
  0.00000000E+00  0.00000000E+00  0.00000000E+00
  0.00000000E+00  0.00000000E+00  0.00000000E+00
  0.00000000E+00  0.00000000E+00  0.00000000E+00
  0.00000000E+00  0.00000000E+00  0.00000000E+00
  0.00000000E+00  0.00000000E+00  0.00000000E+00
  0.00000000E+00  0.00000000E+00  0.00000000E+00
  0.00000000E+00  0.00000000E+00  0.00000000E+00
  0.00000000E+00  0.00000000E+00  0.00000000E+00
