C H                                     
   1.00000000000000     
    40.0000000000000000    0.0000000000000000    0.0000000000000000
     0.0000000000000000   40.0000000000000000    0.0000000000000000
     0.0000000000000000    0.0000000000000000   40.0000000000000000
   C    H 
     9    12
Selective dynamics
Direct
  0.4735907311698571  0.4773988647762195  0.4999665328507624   T   T   T
  0.5063515190430005  0.4652788946196362  0.4999512010417894   T   T   T
  0.5134997311601766  0.4282750109889004  0.5000145075619171   T   T   T
  0.5327823229790629  0.4884346389298006  0.4999221840327683   T   T   T
  0.5268784338658881  0.5228661005458012  0.4999119323493947   T   T   T
  0.5553734621346401  0.5475417918837157  0.5000188800609541   T   T   T
  0.4936223435349137  0.5342017199813601  0.4999068147731715   T   T   T
  0.4667583134169891  0.5118656458174120  0.4999554760044221   T   T   T
  0.4311341501552916  0.5241677444691758  0.5000306463321194   T   T   T
  0.4903656938195411  0.4135321924355563  0.4990720465770485   T   T   T
  0.5273277723397458  0.4208581448882044  0.5226148205825301   T   T   T
  0.5290427417551131  0.4210805125774162  0.4784908243757493   T   T   T
  0.5796873841070591  0.5348911733199279  0.4985282212327769   T   T   T
  0.5535441060545844  0.5649858960710673  0.4788305272955297   T   T   T
  0.5552017459281049  0.5628180185301800  0.5229035740914038   T   T   T
  0.4171118814312093  0.5142547945304159  0.4785376779693039   T   T   T
  0.4299127340613930  0.5515724295630231  0.4990372583239704   T   T   T
  0.4178232650541613  0.5159353193864317  0.5226614821902964   T   T   T
  0.4886492222402409  0.5610851442168487  0.4998459437210114   T   T   T
  0.5585543918217524  0.4793087716322817  0.4998698974494267   T   T   T
  0.4527880539272606  0.4596471908366038  0.4999295511836470   T   T   T
 
  0.00000000E+00  0.00000000E+00  0.00000000E+00
  0.00000000E+00  0.00000000E+00  0.00000000E+00
  0.00000000E+00  0.00000000E+00  0.00000000E+00
  0.00000000E+00  0.00000000E+00  0.00000000E+00
  0.00000000E+00  0.00000000E+00  0.00000000E+00
  0.00000000E+00  0.00000000E+00  0.00000000E+00
  0.00000000E+00  0.00000000E+00  0.00000000E+00
  0.00000000E+00  0.00000000E+00  0.00000000E+00
  0.00000000E+00  0.00000000E+00  0.00000000E+00
  0.00000000E+00  0.00000000E+00  0.00000000E+00
  0.00000000E+00  0.00000000E+00  0.00000000E+00
  0.00000000E+00  0.00000000E+00  0.00000000E+00
  0.00000000E+00  0.00000000E+00  0.00000000E+00
  0.00000000E+00  0.00000000E+00  0.00000000E+00
  0.00000000E+00  0.00000000E+00  0.00000000E+00
  0.00000000E+00  0.00000000E+00  0.00000000E+00
  0.00000000E+00  0.00000000E+00  0.00000000E+00
  0.00000000E+00  0.00000000E+00  0.00000000E+00
  0.00000000E+00  0.00000000E+00  0.00000000E+00
  0.00000000E+00  0.00000000E+00  0.00000000E+00
  0.00000000E+00  0.00000000E+00  0.00000000E+00
