C F O H                                 
   1.00000000000000     
    40.0000000000000000    0.0000000000000000    0.0000000000000000
     0.0000000000000000   40.0000000000000000    0.0000000000000000
     0.0000000000000000    0.0000000000000000   40.0000000000000000
   C    F    O    H 
     8     1     1     7
Selective dynamics
Direct
  0.5100295405681804  0.5233181868097802  0.5000415883209841   T   T   T
  0.5446402460057295  0.5239373588827808  0.5000647622535175   T   T   T
  0.5620531619717686  0.4937937645069443  0.5000472531544966   T   T   T
  0.5456625282435114  0.4630632775779631  0.5000151957275152   T   T   T
  0.5111300689385155  0.4624878420853715  0.4999981413782622   T   T   T
  0.4916680518361307  0.4926042830735994  0.5000079643143625   T   T   T
  0.4559921107262330  0.4909142221641633  0.4999777249615699   T   T   T
  0.4362623770941289  0.5234121157689517  0.4999708234465045   T   T   T
  0.5967387835411594  0.4944324584089497  0.4999965656697611   T   T   T
  0.4399423781253733  0.4632435382308473  0.4999596643252043   T   T   T
  0.4415850286394883  0.5390074213272452  0.5219511295448709   T   T   T
  0.4415918945262980  0.5389914761662097  0.4779814162174433   T   T   T
  0.4096752159374271  0.5173783409687055  0.4999669395260908   T   T   T
  0.4977296544685606  0.4389496526665801  0.4999584998762560   T   T   T
  0.5602391668574825  0.4401806707975789  0.4999834335084689   T   T   T
  0.5583361285335686  0.5473522438507069  0.5000662175927233   T   T   T
  0.4967236639864231  0.5469331467136374  0.5000136801819668   T   T   T
 
  0.00000000E+00  0.00000000E+00  0.00000000E+00
  0.00000000E+00  0.00000000E+00  0.00000000E+00
  0.00000000E+00  0.00000000E+00  0.00000000E+00
  0.00000000E+00  0.00000000E+00  0.00000000E+00
  0.00000000E+00  0.00000000E+00  0.00000000E+00
  0.00000000E+00  0.00000000E+00  0.00000000E+00
  0.00000000E+00  0.00000000E+00  0.00000000E+00
  0.00000000E+00  0.00000000E+00  0.00000000E+00
  0.00000000E+00  0.00000000E+00  0.00000000E+00
  0.00000000E+00  0.00000000E+00  0.00000000E+00
  0.00000000E+00  0.00000000E+00  0.00000000E+00
  0.00000000E+00  0.00000000E+00  0.00000000E+00
  0.00000000E+00  0.00000000E+00  0.00000000E+00
  0.00000000E+00  0.00000000E+00  0.00000000E+00
  0.00000000E+00  0.00000000E+00  0.00000000E+00
  0.00000000E+00  0.00000000E+00  0.00000000E+00
  0.00000000E+00  0.00000000E+00  0.00000000E+00
