!TPSSh aug-cc-pVTZ d3 TightSCF SlowConv RIJCOSX defgrid2
 
%pal
nprocs 4
end
 
%scf
MaxIter 1500
end
 
%maxcore 3000
 
!CPCM
%cpcm smd true
SMDsolvent "MeCN"
surfacetype gepol_ses
rsolv 2.19
end 
 
* xyz 1 2
C           1.23906097821424     -1.40551070901350     -0.00000531617187
C           2.45015803140750     -0.67322429285633     -0.00000921567554
C           2.42811091171597      0.71268482354482     -0.00001568112958
C           1.19571143634270      1.39424054969992     -0.00001075953318
C          -0.03981045812169      0.67829020396443      0.00000284784769
N          -1.17332230996389      1.38563715697618      0.00000321346217
C          -2.32918806881659      0.72347909408816      0.00002389103772
C          -2.42077579021744     -0.67559967987832      0.00002275899277
C          -1.24727430719380     -1.42666779167592      0.00001979178345
C          -0.01202551197153     -0.74717299874334      0.00001126438315
H          -1.27875276164831     -2.52070410881391      0.00003141451029
H          -3.39973883027065     -1.16186770315986      0.00002731924985
H          -3.23745148992936      1.33696404502357      0.00004224395057
H           1.14599213399064      2.48703198107260     -0.00001815853916
H           3.36241847162623      1.28070852836563     -0.00003089393792
H           3.40229793543149     -1.21093180244413     -0.00001262742469
H           1.27044702940448     -2.50010749615001     -0.00001669280572
*
