C N H                                   
   1.00000000000000     
    40.0000000000000000    0.0000000000000000    0.0000000000000000
     0.0000000000000000   40.0000000000000000    0.0000000000000000
     0.0000000000000000    0.0000000000000000   40.0000000000000000
   C    N    H 
    10     1    17
Selective dynamics
Direct
  0.5273785870669983  0.4683580783648509  0.5016441543328796   T   T   T
  0.5093213148393687  0.5014007663458599  0.5012210500942871   T   T   T
  0.5269958437120792  0.5317113512300295  0.5005100637069617   T   T   T
  0.5639728708851308  0.5334126312310801  0.4990295448380806   T   T   T
  0.5807301502782138  0.5000655768287743  0.4905145415293433   T   T   T
  0.5645124189566175  0.4718681831846254  0.5105478625767859   T   T   T
  0.4544368273641055  0.5315931608411475  0.5021717899316158   T   T   T
  0.4190646854078892  0.5177535896675920  0.5067022555159184   T   T   T
  0.4206511363691305  0.4836023460356600  0.4893374232627394   T   T   T
  0.4554111366372879  0.4708081885074762  0.4987548451242532   T   T   T
  0.4758196238084835  0.5013914487920133  0.5010277493366573   T   T   T
  0.5770612175434522  0.4479037632672629  0.5058129722394682   T   T   T
  0.5670953668088003  0.4771221781711859  0.5374746532882426   T   T   T
  0.6076684254759002  0.5015725984164590  0.4956681616619463   T   T   T
  0.5779555307511899  0.4950359442631438  0.4635513126931841   T   T   T
  0.5713002304894914  0.5535394737295718  0.4816745020882394   T   T   T
  0.5727048216634145  0.5423425994477640  0.5238159033582832   T   T   T
  0.5132758717883661  0.5552586472703425  0.5008357537335684   T   T   T
  0.4663998578552082  0.4534689473035698  0.4805766340827518   T   T   T
  0.4553537529352241  0.4584734446811183  0.5234206267371988   T   T   T
  0.4010066055760149  0.4663289755119777  0.4974914055462705   T   T   T
  0.4188314446214960  0.4865380108460684  0.4620626818191340   T   T   T
  0.4003186011803592  0.5345231975428675  0.4958485912135444   T   T   T
  0.4134307727882955  0.5146304952891896  0.5334161970315492   T   T   T
  0.4626041072146094  0.5480122003534333  0.5225484258575079   T   T   T
  0.4571179425664837  0.5450934048339562  0.4783516211008561   T   T   T
  0.5148579186991498  0.4513902656393753  0.5192767749763121   T   T   T
  0.5247229367172395  0.4568025324036071  0.4767135023224682   T   T   T
 
  0.00000000E+00  0.00000000E+00  0.00000000E+00
  0.00000000E+00  0.00000000E+00  0.00000000E+00
  0.00000000E+00  0.00000000E+00  0.00000000E+00
  0.00000000E+00  0.00000000E+00  0.00000000E+00
  0.00000000E+00  0.00000000E+00  0.00000000E+00
  0.00000000E+00  0.00000000E+00  0.00000000E+00
  0.00000000E+00  0.00000000E+00  0.00000000E+00
  0.00000000E+00  0.00000000E+00  0.00000000E+00
  0.00000000E+00  0.00000000E+00  0.00000000E+00
  0.00000000E+00  0.00000000E+00  0.00000000E+00
  0.00000000E+00  0.00000000E+00  0.00000000E+00
  0.00000000E+00  0.00000000E+00  0.00000000E+00
  0.00000000E+00  0.00000000E+00  0.00000000E+00
  0.00000000E+00  0.00000000E+00  0.00000000E+00
  0.00000000E+00  0.00000000E+00  0.00000000E+00
  0.00000000E+00  0.00000000E+00  0.00000000E+00
  0.00000000E+00  0.00000000E+00  0.00000000E+00
  0.00000000E+00  0.00000000E+00  0.00000000E+00
  0.00000000E+00  0.00000000E+00  0.00000000E+00
  0.00000000E+00  0.00000000E+00  0.00000000E+00
  0.00000000E+00  0.00000000E+00  0.00000000E+00
  0.00000000E+00  0.00000000E+00  0.00000000E+00
  0.00000000E+00  0.00000000E+00  0.00000000E+00
  0.00000000E+00  0.00000000E+00  0.00000000E+00
  0.00000000E+00  0.00000000E+00  0.00000000E+00
  0.00000000E+00  0.00000000E+00  0.00000000E+00
  0.00000000E+00  0.00000000E+00  0.00000000E+00
  0.00000000E+00  0.00000000E+00  0.00000000E+00
