C H                                     
   1.00000000000000     
    40.0000000000000000    0.0000000000000000    0.0000000000000000
     0.0000000000000000   40.0000000000000000    0.0000000000000000
     0.0000000000000000    0.0000000000000000   40.0000000000000000
   C    H 
    12    14
Selective dynamics
Direct
  0.5205329484547746  0.4856899788095415  0.4964686261316356   T   T   T
  0.5478688347167732  0.4638503089804396  0.5005419778617257   T   T   T
  0.5805189783060619  0.4755051370567590  0.5037643205570672   T   T   T
  0.5868288612784457  0.5098621594903017  0.5020914076703968   T   T   T
  0.5602464622170605  0.5318861452227288  0.4977566595705302   T   T   T
  0.5268600918936750  0.5207572445747853  0.4956577789536380   T   T   T
  0.5008188068646533  0.5465637914953693  0.4933372002614275   T   T   T
  0.4695482176693505  0.5454668636350553  0.5057601025881974   T   T   T
  0.4446847503371668  0.5732564264793085  0.5033547012962747   T   T   T
  0.4868093974244829  0.4719905862297060  0.4914297396658449   T   T   T
  0.4746166866981851  0.4438289324451919  0.5051852110681737   T   T   T
  0.4405505530830777  0.4298913468736202  0.4986539863228014   T   T   T
  0.4217200205258536  0.5648484888873675  0.4906631730483978   T   T   T
  0.4368706809825442  0.5817831864891251  0.5283613324782943   T   T   T
  0.4546469994460698  0.5948503862256047  0.4896116778652261   T   T   T
  0.4613521737900560  0.5231204397312711  0.5192312923866416   T   T   T
  0.5089066664941237  0.5699138335744942  0.4814534479743391   T   T   T
  0.5650781531603731  0.5587340849737028  0.4965541777911048   T   T   T
  0.6123231970261589  0.5193545097133252  0.5039562593873625   T   T   T
  0.6010595037535927  0.4578275792115782  0.5067957040899728   T   T   T
  0.5432079681229489  0.4369714634619637  0.5001979027368901   T   T   T
  0.4264260537792627  0.4453527603650791  0.4808848156588636   T   T   T
  0.4420269235007933  0.4043359436192778  0.4884556664762698   T   T   T
  0.4259329635458625  0.4279795847647373  0.5219293784056275   T   T   T
  0.4901403555394705  0.4299257250800981  0.5229702519746202   T   T   T
  0.4704247513892019  0.4864520926095632  0.4749322077786789   T   T   T
 
  0.00000000E+00  0.00000000E+00  0.00000000E+00
  0.00000000E+00  0.00000000E+00  0.00000000E+00
  0.00000000E+00  0.00000000E+00  0.00000000E+00
  0.00000000E+00  0.00000000E+00  0.00000000E+00
  0.00000000E+00  0.00000000E+00  0.00000000E+00
  0.00000000E+00  0.00000000E+00  0.00000000E+00
  0.00000000E+00  0.00000000E+00  0.00000000E+00
  0.00000000E+00  0.00000000E+00  0.00000000E+00
  0.00000000E+00  0.00000000E+00  0.00000000E+00
  0.00000000E+00  0.00000000E+00  0.00000000E+00
  0.00000000E+00  0.00000000E+00  0.00000000E+00
  0.00000000E+00  0.00000000E+00  0.00000000E+00
  0.00000000E+00  0.00000000E+00  0.00000000E+00
  0.00000000E+00  0.00000000E+00  0.00000000E+00
  0.00000000E+00  0.00000000E+00  0.00000000E+00
  0.00000000E+00  0.00000000E+00  0.00000000E+00
  0.00000000E+00  0.00000000E+00  0.00000000E+00
  0.00000000E+00  0.00000000E+00  0.00000000E+00
  0.00000000E+00  0.00000000E+00  0.00000000E+00
  0.00000000E+00  0.00000000E+00  0.00000000E+00
  0.00000000E+00  0.00000000E+00  0.00000000E+00
  0.00000000E+00  0.00000000E+00  0.00000000E+00
  0.00000000E+00  0.00000000E+00  0.00000000E+00
  0.00000000E+00  0.00000000E+00  0.00000000E+00
  0.00000000E+00  0.00000000E+00  0.00000000E+00
  0.00000000E+00  0.00000000E+00  0.00000000E+00
