C N H                                   
   1.00000000000000     
    40.0000000000000000    0.0000000000000000    0.0000000000000000
     0.0000000000000000   40.0000000000000000    0.0000000000000000
     0.0000000000000000    0.0000000000000000   40.0000000000000000
   C    N    H 
    10     1    17
Selective dynamics
Direct
  0.5273955179263154  0.4683615582483327  0.5016521734322055   T   T   T
  0.5093589854944227  0.5013922035086082  0.5012234482715101   T   T   T
  0.5270702170658339  0.5317035606939555  0.5005301490781875   T   T   T
  0.5639884124515930  0.5334003283313038  0.4990121579515048   T   T   T
  0.5807076680414482  0.5000579972566186  0.4905223406770673   T   T   T
  0.5645124277092606  0.4718690666990852  0.5105492832616534   T   T   T
  0.4544273126530030  0.5315929408408167  0.5021339038426760   T   T   T
  0.4190641071887953  0.5177514114375157  0.5067067233091791   T   T   T
  0.4206538938655697  0.4836118039899588  0.4893279940872048   T   T   T
  0.4553905978586101  0.4708093120768240  0.4987464063192135   T   T   T
  0.4758433156815798  0.5013977865408208  0.5010365762695770   T   T   T
  0.5770696297548383  0.4479320626012750  0.5058479033894585   T   T   T
  0.5670560634072785  0.4769949956894735  0.5374860787757498   T   T   T
  0.6076066155243041  0.5015690953685663  0.4956852008022992   T   T   T
  0.5780531222398650  0.4950692378438930  0.4635591563292323   T   T   T
  0.5713319648849193  0.5535609878239995  0.4817069189497474   T   T   T
  0.5727488848199798  0.5424730275209413  0.5237545990119230   T   T   T
  0.5133085646461311  0.5552258339088993  0.5009249582636741   T   T   T
  0.4663625415053119  0.4534042258939266  0.4806018405101611   T   T   T
  0.4553526233906098  0.4584198558416972  0.5234056494184784   T   T   T
  0.4009651617606522  0.4663959580864443  0.4974254478184008   T   T   T
  0.4187929696489689  0.4864571682278296  0.4620581697006685   T   T   T
  0.4002504446399300  0.5344794295406174  0.4959439288179937   T   T   T
  0.4134383204803811  0.5147413913373668  0.5334270897817959   T   T   T
  0.4625513747271128  0.5480768453227611  0.5224916440472995   T   T   T
  0.4570994681509220  0.5451141158662764  0.4782990980723199   T   T   T
  0.5148308813371116  0.4513518986373057  0.5192255213450423   T   T   T
  0.5247689131452802  0.4567879008648887  0.4767166384658310   T   T   T
 
  0.00000000E+00  0.00000000E+00  0.00000000E+00
  0.00000000E+00  0.00000000E+00  0.00000000E+00
  0.00000000E+00  0.00000000E+00  0.00000000E+00
  0.00000000E+00  0.00000000E+00  0.00000000E+00
  0.00000000E+00  0.00000000E+00  0.00000000E+00
  0.00000000E+00  0.00000000E+00  0.00000000E+00
  0.00000000E+00  0.00000000E+00  0.00000000E+00
  0.00000000E+00  0.00000000E+00  0.00000000E+00
  0.00000000E+00  0.00000000E+00  0.00000000E+00
  0.00000000E+00  0.00000000E+00  0.00000000E+00
  0.00000000E+00  0.00000000E+00  0.00000000E+00
  0.00000000E+00  0.00000000E+00  0.00000000E+00
  0.00000000E+00  0.00000000E+00  0.00000000E+00
  0.00000000E+00  0.00000000E+00  0.00000000E+00
  0.00000000E+00  0.00000000E+00  0.00000000E+00
  0.00000000E+00  0.00000000E+00  0.00000000E+00
  0.00000000E+00  0.00000000E+00  0.00000000E+00
  0.00000000E+00  0.00000000E+00  0.00000000E+00
  0.00000000E+00  0.00000000E+00  0.00000000E+00
  0.00000000E+00  0.00000000E+00  0.00000000E+00
  0.00000000E+00  0.00000000E+00  0.00000000E+00
  0.00000000E+00  0.00000000E+00  0.00000000E+00
  0.00000000E+00  0.00000000E+00  0.00000000E+00
  0.00000000E+00  0.00000000E+00  0.00000000E+00
  0.00000000E+00  0.00000000E+00  0.00000000E+00
  0.00000000E+00  0.00000000E+00  0.00000000E+00
  0.00000000E+00  0.00000000E+00  0.00000000E+00
  0.00000000E+00  0.00000000E+00  0.00000000E+00
