C N H                                   
   1.00000000000000     
    40.0000000000000000    0.0000000000000000    0.0000000000000000
     0.0000000000000000   40.0000000000000000    0.0000000000000000
     0.0000000000000000    0.0000000000000000   40.0000000000000000
   C    N    H 
     8     1    11
Selective dynamics
Direct
  0.4802379788816522  0.5307148084293201  0.5001257373348712   T   T   T
  0.4458982067073903  0.5303675932417443  0.5003709771714129   T   T   T
  0.4284180545025639  0.5000019746044325  0.5004819561935873   T   T   T
  0.4458958122104781  0.4696342373135752  0.5003651791648087   T   T   T
  0.4802361247460756  0.4692859115517325  0.5001199419532542   T   T   T
  0.4982400197426995  0.4999996517632909  0.5000009290846161   T   T   T
  0.5509471431704617  0.5312889045908402  0.4996700178303873   T   T   T
  0.5509462311221881  0.4687088128684559  0.4996782896708900   T   T   T
  0.5320914286624941  0.4999992719242394  0.4997663581915641   T   T   T
  0.5774216871660766  0.5255717974284743  0.4994607350838953   T   T   T
  0.5446952767096060  0.5458899242788627  0.4775066626294626   T   T   T
  0.5450400122837531  0.5457935056073558  0.5219955486589787   T   T   T
  0.5774206713474084  0.4744252322784783  0.4994851750939988   T   T   T
  0.5450247211265312  0.4542014592324132  0.5219973528100347   T   T   T
  0.5447075376963807  0.4541110140129992  0.4775082371947965   T   T   T
  0.4933683688058318  0.4456988080166002  0.5000049989547480   T   T   T
  0.4323341316273926  0.4462302849208057  0.5004098991600771   T   T   T
  0.4013689241278712  0.5000022167243517  0.5006162399493798   T   T   T
  0.4323371581347115  0.5537726832326892  0.5004216658268066   T   T   T
  0.4933715112284242  0.5543009079793549  0.5000150980424491   T   T   T
 
  0.00000000E+00  0.00000000E+00  0.00000000E+00
  0.00000000E+00  0.00000000E+00  0.00000000E+00
  0.00000000E+00  0.00000000E+00  0.00000000E+00
  0.00000000E+00  0.00000000E+00  0.00000000E+00
  0.00000000E+00  0.00000000E+00  0.00000000E+00
  0.00000000E+00  0.00000000E+00  0.00000000E+00
  0.00000000E+00  0.00000000E+00  0.00000000E+00
  0.00000000E+00  0.00000000E+00  0.00000000E+00
  0.00000000E+00  0.00000000E+00  0.00000000E+00
  0.00000000E+00  0.00000000E+00  0.00000000E+00
  0.00000000E+00  0.00000000E+00  0.00000000E+00
  0.00000000E+00  0.00000000E+00  0.00000000E+00
  0.00000000E+00  0.00000000E+00  0.00000000E+00
  0.00000000E+00  0.00000000E+00  0.00000000E+00
  0.00000000E+00  0.00000000E+00  0.00000000E+00
  0.00000000E+00  0.00000000E+00  0.00000000E+00
  0.00000000E+00  0.00000000E+00  0.00000000E+00
  0.00000000E+00  0.00000000E+00  0.00000000E+00
  0.00000000E+00  0.00000000E+00  0.00000000E+00
  0.00000000E+00  0.00000000E+00  0.00000000E+00
