C O H                                   
   1.00000000000000     
    40.0000000000000000    0.0000000000000000    0.0000000000000000
     0.0000000000000000   40.0000000000000000    0.0000000000000000
     0.0000000000000000    0.0000000000000000   40.0000000000000000
   C    O    H 
     9     1    10
Selective dynamics
Direct
  0.5067767826938324  0.5240448989112472  0.4997400697777083   T   T   T
  0.4721717641714531  0.5243093003151070  0.4995671816643810   T   T   T
  0.4532348530669796  0.4946046269278937  0.4995580204126332   T   T   T
  0.4712633338179315  0.4642986554800035  0.4997118294245978   T   T   T
  0.5057681737976994  0.4634753126087635  0.4998652520400922   T   T   T
  0.5253556652843943  0.4934614553904577  0.4999442083687916   T   T   T
  0.5610278383640035  0.4920083804666142  0.5000635333715441   T   T   T
  0.5807961386352997  0.5244241656140388  0.5000861841950216   T   T   T
  0.4156947697396844  0.4949986410691983  0.5004431099575062   T   T   T
  0.5772938637261406  0.4641630050180414  0.5001332366209514   T   T   T
  0.6074060721964358  0.5184529133534592  0.5002085538096579   T   T   T
  0.5754163758597396  0.5400717618203329  0.5219810865504114   T   T   T
  0.5756069008816908  0.5399812214206827  0.4780778607734017   T   T   T
  0.5188563108094676  0.4397219418203055  0.4998133138310678   T   T   T
  0.4574722833920178  0.4408205287431132  0.4995904913580889   T   T   T
  0.4058886722425109  0.4920148589752901  0.5259350159000814   T   T   T
  0.4057516781473616  0.5185538825246881  0.4907876849374233   T   T   T
  0.4050875107678993  0.4746420711212015  0.4855474669425217   T   T   T
  0.4591612875841725  0.5482036720379889  0.4993581666181913   T   T   T
  0.5199697248212931  0.5477497063815491  0.4995897334459153   T   T   T
 
  0.00000000E+00  0.00000000E+00  0.00000000E+00
  0.00000000E+00  0.00000000E+00  0.00000000E+00
  0.00000000E+00  0.00000000E+00  0.00000000E+00
  0.00000000E+00  0.00000000E+00  0.00000000E+00
  0.00000000E+00  0.00000000E+00  0.00000000E+00
  0.00000000E+00  0.00000000E+00  0.00000000E+00
  0.00000000E+00  0.00000000E+00  0.00000000E+00
  0.00000000E+00  0.00000000E+00  0.00000000E+00
  0.00000000E+00  0.00000000E+00  0.00000000E+00
  0.00000000E+00  0.00000000E+00  0.00000000E+00
  0.00000000E+00  0.00000000E+00  0.00000000E+00
  0.00000000E+00  0.00000000E+00  0.00000000E+00
  0.00000000E+00  0.00000000E+00  0.00000000E+00
  0.00000000E+00  0.00000000E+00  0.00000000E+00
  0.00000000E+00  0.00000000E+00  0.00000000E+00
  0.00000000E+00  0.00000000E+00  0.00000000E+00
  0.00000000E+00  0.00000000E+00  0.00000000E+00
  0.00000000E+00  0.00000000E+00  0.00000000E+00
  0.00000000E+00  0.00000000E+00  0.00000000E+00
  0.00000000E+00  0.00000000E+00  0.00000000E+00
