C O H                                   
   1.00000000000000     
    25.0000000000000000    0.0000000000000000    0.0000000000000000
     0.0000000000000000   25.0000000000000000    0.0000000000000000
     0.0000000000000000    0.0000000000000000   25.0000000000000000
   C    O    H 
    11     2     8
Selective dynamics
Direct
  0.5022730369800997  0.4922453586099985  0.4275417869845720   T   T   T
  0.5019144492774660  0.5507389584289533  0.4331179587239123   T   T   T
  0.5003776262373700  0.5762242170107894  0.4809549915512231   T   T   T
  0.4989332585348092  0.5443073769364969  0.5314457587212597   T   T   T
  0.4992082433765709  0.4849835727496919  0.5275743623256861   T   T   T
  0.5008733884300574  0.4595014912229956  0.4772090264972710   T   T   T
  0.5011382777925549  0.4035592938029407  0.4743430291662306   T   T   T
  0.4997291524601792  0.3730651830322362  0.5211180199461650   T   T   T
  0.4980623469060294  0.3983100876278718  0.5710774460376921   T   T   T
  0.4978360916273465  0.4540533482362161  0.5743018550240461   T   T   T
  0.4999596024493473  0.6356111963650918  0.4866209750265321   T   T   T
  0.4975613613722928  0.5674633677596854  0.5753097477934601   T   T   T
  0.5036878497486594  0.4713797247038749  0.3823500507799050   T   T   T
  0.5029751563507027  0.5732802263859706  0.3956819486052485   T   T   T
  0.4966108141740815  0.4741444286571202  0.6129773645738914   T   T   T
  0.4970172320447663  0.3744742816169611  0.6075948509434930   T   T   T
  0.4999485419852936  0.3295248548808577  0.5186850201583568   T   T   T
  0.5024369689799387  0.3843422559628692  0.4352340366497749   T   T   T
  0.4640456551882735  0.6484990033648258  0.5085463339564603   T   T   T
  0.5343338382997390  0.6487959515057050  0.5107272112765342   T   T   T
  0.5010771077844154  0.6554958211388480  0.4475872252582889   T   T   T
 
  0.00000000E+00  0.00000000E+00  0.00000000E+00
  0.00000000E+00  0.00000000E+00  0.00000000E+00
  0.00000000E+00  0.00000000E+00  0.00000000E+00
  0.00000000E+00  0.00000000E+00  0.00000000E+00
  0.00000000E+00  0.00000000E+00  0.00000000E+00
  0.00000000E+00  0.00000000E+00  0.00000000E+00
  0.00000000E+00  0.00000000E+00  0.00000000E+00
  0.00000000E+00  0.00000000E+00  0.00000000E+00
  0.00000000E+00  0.00000000E+00  0.00000000E+00
  0.00000000E+00  0.00000000E+00  0.00000000E+00
  0.00000000E+00  0.00000000E+00  0.00000000E+00
  0.00000000E+00  0.00000000E+00  0.00000000E+00
  0.00000000E+00  0.00000000E+00  0.00000000E+00
  0.00000000E+00  0.00000000E+00  0.00000000E+00
  0.00000000E+00  0.00000000E+00  0.00000000E+00
  0.00000000E+00  0.00000000E+00  0.00000000E+00
  0.00000000E+00  0.00000000E+00  0.00000000E+00
  0.00000000E+00  0.00000000E+00  0.00000000E+00
  0.00000000E+00  0.00000000E+00  0.00000000E+00
  0.00000000E+00  0.00000000E+00  0.00000000E+00
  0.00000000E+00  0.00000000E+00  0.00000000E+00
