C H                                     
   1.00000000000000     
    40.0000000000000000    0.0000000000000000    0.0000000000000000
     0.0000000000000000   40.0000000000000000    0.0000000000000000
     0.0000000000000000    0.0000000000000000   40.0000000000000000
   C    H 
    14    12
Selective dynamics
Direct
  0.5597994705722231  0.4796445740382395  0.5168543424376646   T   T   T
  0.5317741425045178  0.4904422612174616  0.4990248836726571   T   T   T
  0.5345783713731855  0.5193951638929429  0.4796730590406905   T   T   T
  0.5645599455025784  0.5367258098559956  0.4778039577800466   T   T   T
  0.5922858134952180  0.5256122646126401  0.4955414346234457   T   T   T
  0.5897804241329917  0.4970214200737128  0.5151187600084340   T   T   T
  0.5000000000000000  0.4714242210406338  0.5000000000000000   T   T   T
  0.5000000000000000  0.4379528964391227  0.4999990000000025   T   T   T
  0.4682258574954822  0.4904422612174616  0.5009751163273429   T   T   T
  0.4402005294277769  0.4796455740382440  0.4831456575623354   T   T   T
  0.4102195758670082  0.4970224200737103  0.4848812399915658   T   T   T
  0.4077141865047820  0.5256132646126376  0.5044585653765542   T   T   T
  0.4354400544974216  0.5367258098559956  0.5221970422199650   T   T   T
  0.4654216286268073  0.5193951638929429  0.5203279409593141   T   T   T
  0.6111817536650241  0.4883807440224414  0.5293285732288554   T   T   T
  0.6156415100481066  0.5392762091953828  0.4942697668688679   T   T   T
  0.5662622935523959  0.5590039623878300  0.4624575644455462   T   T   T
  0.5131110032703065  0.5282618991846666  0.4657274029925940   T   T   T
  0.4769371720158976  0.4238668927125646  0.5017330488601134   T   T   T
  0.5230618279841048  0.4238658927125600  0.4982649511398846   T   T   T
  0.4868889967296935  0.5282608991846691  0.5342735970074034   T   T   T
  0.4337377064476041  0.5590029623878325  0.5375444355544557   T   T   T
  0.3843584899518934  0.5392772091953874  0.5057312331311296   T   T   T
  0.3888182463349759  0.4883817440224389  0.4706704267711471   T   T   T
  0.4420947565162258  0.4576787400662229  0.4674035914725536   T   T   T
  0.5579052434837742  0.4576777400662254  0.5325944085274443   T   T   T
 
  0.00000000E+00  0.00000000E+00  0.00000000E+00
  0.00000000E+00  0.00000000E+00  0.00000000E+00
  0.00000000E+00  0.00000000E+00  0.00000000E+00
  0.00000000E+00  0.00000000E+00  0.00000000E+00
  0.00000000E+00  0.00000000E+00  0.00000000E+00
  0.00000000E+00  0.00000000E+00  0.00000000E+00
  0.00000000E+00  0.00000000E+00  0.00000000E+00
  0.00000000E+00  0.00000000E+00  0.00000000E+00
  0.00000000E+00  0.00000000E+00  0.00000000E+00
  0.00000000E+00  0.00000000E+00  0.00000000E+00
  0.00000000E+00  0.00000000E+00  0.00000000E+00
  0.00000000E+00  0.00000000E+00  0.00000000E+00
  0.00000000E+00  0.00000000E+00  0.00000000E+00
  0.00000000E+00  0.00000000E+00  0.00000000E+00
  0.00000000E+00  0.00000000E+00  0.00000000E+00
  0.00000000E+00  0.00000000E+00  0.00000000E+00
  0.00000000E+00  0.00000000E+00  0.00000000E+00
  0.00000000E+00  0.00000000E+00  0.00000000E+00
  0.00000000E+00  0.00000000E+00  0.00000000E+00
  0.00000000E+00  0.00000000E+00  0.00000000E+00
  0.00000000E+00  0.00000000E+00  0.00000000E+00
  0.00000000E+00  0.00000000E+00  0.00000000E+00
  0.00000000E+00  0.00000000E+00  0.00000000E+00
  0.00000000E+00  0.00000000E+00  0.00000000E+00
  0.00000000E+00  0.00000000E+00  0.00000000E+00
  0.00000000E+00  0.00000000E+00  0.00000000E+00
