!B3LYP aug-cc-pVTZ d3 TightSCF SlowConv RIJCOSX defgrid2
 
%pal
nprocs 6
end
 
%scf
MaxIter 1500
end
 
%maxcore 3000
 
!CPCM
%cpcm smd true
SMDsolvent "MeCN"
surfacetype gepol_ses
rsolv 2.19
end 
 
* xyz -1 2
  C          -3.62984747030359      2.10634854089890      0.29413366187786
  C          -4.88521656793814      1.52460279264563      0.21285194664948
  C          -2.43996070251224      1.35928996872449      0.08422922937252
  C          -2.61096888777262     -0.00171874484877     -0.27802191885602
  C          -3.87287251644746     -0.57850198655770     -0.36904469903670
  C          -5.03023873609438      0.16696438667983     -0.10988269549484
  C          -1.16948079167151      2.09256049707431      0.16164767275919
  C           0.12067423933497      1.40594735978097      0.30426152268307
  C           1.28964189965584      2.16414147627999      0.02630190894131
  C           2.56066514539573      1.62761624229261      0.15812903251074
  C           2.74361326089362      0.30916965549547      0.60191698925079
  C           1.60721306175648     -0.44185421529682      0.92902893717985
  C           0.32976744930311      0.08871154082537      0.78825579984698
  O          -1.18787359702741      3.35479483613606      0.10344354720181
  H          -3.95752568777400     -1.63142375583986     -0.66486174996515
  H          -6.02174902533034     -0.29324813226849     -0.17715643182860
  H          -3.50305728008549      3.16796655235268      0.52140925280262
  H          -5.77643532337797      2.13678032750153      0.39984091569786
  H          -1.74010174342944     -0.60523310453178     -0.54356548187453
  H          -0.52377533184004     -0.51255708549791      1.10930263672941
  H           3.74754253761040     -0.11513493690994      0.70902931502125
  H           1.72088092192766     -1.46080357442395      1.31909388538700
  H           1.13299801894373      3.19674935471579     -0.29607576485640
  H           3.43450583978311      2.24528941977158     -0.08460366299948
*
