C H                                     
   1.00000000000000     
    40.0000000000000000    0.0000000000000000    0.0000000000000000
     0.0000000000000000   40.0000000000000000    0.0000000000000000
     0.0000000000000000    0.0000000000000000   40.0000000000000000
   C    H 
    10    12
Selective dynamics
Direct
  0.4949766888262761  0.4743844829304185  0.5001089206143733   T   T   T
  0.4608680906240843  0.4703919865474365  0.5001802391526987   T   T   T
  0.4390599352920326  0.4985155718482229  0.5002643207018561   T   T   T
  0.4531609921332724  0.5310555263637317  0.5002127224173077   T   T   T
  0.4872848708007578  0.5353601286188238  0.5001014382609483   T   T   T
  0.5093339048799854  0.5072020986702505  0.5000696692036842   T   T   T
  0.5443347693062366  0.5134928265346496  0.5000223183067805   T   T   T
  0.5695417143874661  0.4898304284536648  0.5000186291518333   T   T   T
  0.6053099272104995  0.4982386135209795  0.4999586584087367   T   T   T
  0.4022550090976318  0.4936622996146121  0.5000193045644918   T   T   T
  0.6177158915889078  0.4866799894129004  0.5217542745612305   T   T   T
  0.6176541747249020  0.4866013513309057  0.4781707585559714   T   T   T
  0.6101015292892561  0.5251909341907196  0.4999026203757103   T   T   T
  0.5631079694622512  0.4632631770836351  0.5000767396237865   T   T   T
  0.5518681454557449  0.5397808001965670  0.4999721300107322   T   T   T
  0.4980375997440631  0.5604110756185751  0.5000875019240570   T   T   T
  0.4366285047620470  0.5527158552657686  0.5003061803091458   T   T   T
  0.3886261597161656  0.5168607595515310  0.5050128530225185   T   T   T
  0.3943312886602899  0.4842540127340970  0.4753029372585883   T   T   T
  0.3946674352347799  0.4743874558107747  0.5180973398203700   T   T   T
  0.4501125298195191  0.4453387309250499  0.5002564870753025   T   T   T
  0.5110228689838378  0.4523828947767054  0.5001049566798523   T   T   T
 
  0.00000000E+00  0.00000000E+00  0.00000000E+00
  0.00000000E+00  0.00000000E+00  0.00000000E+00
  0.00000000E+00  0.00000000E+00  0.00000000E+00
  0.00000000E+00  0.00000000E+00  0.00000000E+00
  0.00000000E+00  0.00000000E+00  0.00000000E+00
  0.00000000E+00  0.00000000E+00  0.00000000E+00
  0.00000000E+00  0.00000000E+00  0.00000000E+00
  0.00000000E+00  0.00000000E+00  0.00000000E+00
  0.00000000E+00  0.00000000E+00  0.00000000E+00
  0.00000000E+00  0.00000000E+00  0.00000000E+00
  0.00000000E+00  0.00000000E+00  0.00000000E+00
  0.00000000E+00  0.00000000E+00  0.00000000E+00
  0.00000000E+00  0.00000000E+00  0.00000000E+00
  0.00000000E+00  0.00000000E+00  0.00000000E+00
  0.00000000E+00  0.00000000E+00  0.00000000E+00
  0.00000000E+00  0.00000000E+00  0.00000000E+00
  0.00000000E+00  0.00000000E+00  0.00000000E+00
  0.00000000E+00  0.00000000E+00  0.00000000E+00
  0.00000000E+00  0.00000000E+00  0.00000000E+00
  0.00000000E+00  0.00000000E+00  0.00000000E+00
  0.00000000E+00  0.00000000E+00  0.00000000E+00
  0.00000000E+00  0.00000000E+00  0.00000000E+00
