C O H                                   
   1.00000000000000     
    40.0000000000000000    0.0000000000000000    0.0000000000000000
     0.0000000000000000   40.0000000000000000    0.0000000000000000
     0.0000000000000000    0.0000000000000000   40.0000000000000000
   C    O    H 
    10     2    10
Selective dynamics
Direct
  0.4938343464594396  0.4573574841509268  0.5013911543695420   T   T   T
  0.4589225999673241  0.4542653167600313  0.5006778963214966   T   T   T
  0.4409051939940126  0.4835296996953695  0.4997836014820577   T   T   T
  0.4566227383843998  0.5145865308789059  0.4998097044330828   T   T   T
  0.4907298117138472  0.5180596630948228  0.5006530254201524   T   T   T
  0.5101000387622715  0.4884086568801066  0.5013682833573082   T   T   T
  0.5466638817972779  0.4889457626803618  0.5020525525110958   T   T   T
  0.5667009299869139  0.5158082791498447  0.5016194562359951   T   T   T
  0.6039569341292482  0.5143640127373549  0.5023998529236801   T   T   T
  0.4014067348835071  0.5229153769973456  0.4943932158394504   T   T   T
  0.4329164330975520  0.5394669277015289  0.5001447453709504   T   T   T
  0.4068283868735618  0.4877211725145619  0.5000847299434025   T   T   T
  0.6130915418532656  0.4886706362580008  0.5033206941070958   T   T   T
  0.6146908953935920  0.5265819611344058  0.4803638027575862   T   T   T
  0.6138294142909023  0.5278364924189327  0.5241068421097818   T   T   T
  0.5558832771231120  0.5407522584871267  0.5006061601301620   T   T   T
  0.5583283284725197  0.4643484637694978  0.5029839093867218   T   T   T
  0.5020534868053834  0.5426450508184412  0.5008980300302491   T   T   T
  0.3938862093867523  0.5267260951208392  0.4683774532542911   T   T   T
  0.3830277945302447  0.5321597733974985  0.5121648876519667   T   T   T
  0.4467662373059267  0.4300619330662185  0.5008721805534889   T   T   T
  0.5088557847889283  0.4347874522878886  0.5019268218104452   T   T   T
 
  0.00000000E+00  0.00000000E+00  0.00000000E+00
  0.00000000E+00  0.00000000E+00  0.00000000E+00
  0.00000000E+00  0.00000000E+00  0.00000000E+00
  0.00000000E+00  0.00000000E+00  0.00000000E+00
  0.00000000E+00  0.00000000E+00  0.00000000E+00
  0.00000000E+00  0.00000000E+00  0.00000000E+00
  0.00000000E+00  0.00000000E+00  0.00000000E+00
  0.00000000E+00  0.00000000E+00  0.00000000E+00
  0.00000000E+00  0.00000000E+00  0.00000000E+00
  0.00000000E+00  0.00000000E+00  0.00000000E+00
  0.00000000E+00  0.00000000E+00  0.00000000E+00
  0.00000000E+00  0.00000000E+00  0.00000000E+00
  0.00000000E+00  0.00000000E+00  0.00000000E+00
  0.00000000E+00  0.00000000E+00  0.00000000E+00
  0.00000000E+00  0.00000000E+00  0.00000000E+00
  0.00000000E+00  0.00000000E+00  0.00000000E+00
  0.00000000E+00  0.00000000E+00  0.00000000E+00
  0.00000000E+00  0.00000000E+00  0.00000000E+00
  0.00000000E+00  0.00000000E+00  0.00000000E+00
  0.00000000E+00  0.00000000E+00  0.00000000E+00
  0.00000000E+00  0.00000000E+00  0.00000000E+00
  0.00000000E+00  0.00000000E+00  0.00000000E+00
