C H                                     
   1.00000000000000     
    40.0000000000000000    0.0000000000000000    0.0000000000000000
     0.0000000000000000   40.0000000000000000    0.0000000000000000
     0.0000000000000000    0.0000000000000000   40.0000000000000000
   C    H 
    12    14
Selective dynamics
Direct
  0.5480508181104637  0.4696210870414950  0.4919830382112848   T   T   T
  0.5829004586247940  0.4700940435679516  0.4924011483692550   T   T   T
  0.6001026148655692  0.4993046485873476  0.5010371720227926   T   T   T
  0.5819306581375742  0.5280180250349569  0.5091076670228167   T   T   T
  0.5470232203012525  0.5275167406984428  0.5086370392056293   T   T   T
  0.5292648446184712  0.4982194913314946  0.5004224028929041   T   T   T
  0.4922108836280242  0.4978749693855080  0.5004749644807786   T   T   T
  0.4747693667577204  0.4697881520651691  0.5073179146744767   T   T   T
  0.4372966901781857  0.4674914054892778  0.5081573342199730   T   T   T
  0.4203689393393462  0.5018536863298078  0.5083136561321500   T   T   T
  0.4375779105644607  0.5252637070059081  0.4834257297762893   T   T   T
  0.4743116778803632  0.5304483607930032  0.4929201547455782   T   T   T
  0.4876266117462982  0.5436749792554804  0.4727557722758530   T   T   T
  0.4758411927325288  0.5471334041524657  0.5148993938241931   T   T   T
  0.4246783627025859  0.5495320431449071  0.4822457692963140   T   T   T
  0.4361702639591233  0.5142958238868428  0.4581615151696301   T   T   T
  0.3935858177246625  0.4993473657984837  0.5026047853331189   T   T   T
  0.4221200356007923  0.5127713834123097  0.5335780539941412   T   T   T
  0.4287727164271715  0.4528650046835094  0.4862708434322395   T   T   T
  0.4294610326991697  0.4526981240166736  0.5300589835663846   T   T   T
  0.4883827191839642  0.4467859917582290  0.5130705049178321   T   T   T
  0.5333941859165392  0.5502131447987751  0.5151586690971702   T   T   T
  0.5949752860021443  0.5510198355687660  0.5158013612912762   T   T   T
  0.6273602497843025  0.4997057951053103  0.5012084988077051   T   T   T
  0.5967458668129091  0.4476086347460294  0.4855613853247526   T   T   T
  0.5350755757016094  0.4468531523418650  0.4844262419154543   T   T   T
 
  0.00000000E+00  0.00000000E+00  0.00000000E+00
  0.00000000E+00  0.00000000E+00  0.00000000E+00
  0.00000000E+00  0.00000000E+00  0.00000000E+00
  0.00000000E+00  0.00000000E+00  0.00000000E+00
  0.00000000E+00  0.00000000E+00  0.00000000E+00
  0.00000000E+00  0.00000000E+00  0.00000000E+00
  0.00000000E+00  0.00000000E+00  0.00000000E+00
  0.00000000E+00  0.00000000E+00  0.00000000E+00
  0.00000000E+00  0.00000000E+00  0.00000000E+00
  0.00000000E+00  0.00000000E+00  0.00000000E+00
  0.00000000E+00  0.00000000E+00  0.00000000E+00
  0.00000000E+00  0.00000000E+00  0.00000000E+00
  0.00000000E+00  0.00000000E+00  0.00000000E+00
  0.00000000E+00  0.00000000E+00  0.00000000E+00
  0.00000000E+00  0.00000000E+00  0.00000000E+00
  0.00000000E+00  0.00000000E+00  0.00000000E+00
  0.00000000E+00  0.00000000E+00  0.00000000E+00
  0.00000000E+00  0.00000000E+00  0.00000000E+00
  0.00000000E+00  0.00000000E+00  0.00000000E+00
  0.00000000E+00  0.00000000E+00  0.00000000E+00
  0.00000000E+00  0.00000000E+00  0.00000000E+00
  0.00000000E+00  0.00000000E+00  0.00000000E+00
  0.00000000E+00  0.00000000E+00  0.00000000E+00
  0.00000000E+00  0.00000000E+00  0.00000000E+00
  0.00000000E+00  0.00000000E+00  0.00000000E+00
  0.00000000E+00  0.00000000E+00  0.00000000E+00
