!B3LYP aug-cc-pVTZ d3 TightSCF SlowConv RIJCOSX defgrid2
 
%pal
nprocs 4
end
 
%scf
MaxIter 1500
end
 
%maxcore 3000
 
!CPCM
%cpcm smd true
SMDsolvent "MeCN"
surfacetype gepol_ses
rsolv 2.19
end 
 
* xyz 1 2
C          -0.34270275561118      0.84711240516987     -0.00000461392678
C          -1.62114214149599      0.28310666085248      0.00005036258773
C          -1.76655845984461     -1.14534797316706      0.00015902441429
C          -0.64047775510568     -1.96124661886859      0.00020951229865
C           0.62711717490611     -1.39778631503778      0.00015498102973
C           0.79382657036915      0.03758278475822      0.00002872344792
C           2.09240943022637      0.64547974379403     -0.00003830185520
C           3.29430838690790     -0.01032166453559      0.00000281703843
C           4.60760132054960      0.65947907504340     -0.00004889316533
H           5.19809781171836      0.33504540056372     -0.87962451212125
H           5.19805381830583      0.33523637975460      0.87962749612829
H           4.53047503370681      1.75742824935659     -0.00016451192059
H           3.31318609028762     -1.10737767604801      0.00008430734855
H           2.10926613216247      1.74179274962735     -0.00012792598686
H           1.50121349078302     -2.05141955010833      0.00019397364887
H          -0.75915141594404     -3.04749102718735      0.00029347430122
H          -2.76100240605802     -1.59669233225998      0.00020413991672
O          -2.63949171539410      1.10870001849501     -0.00000818654028
C          -3.98618237230029      0.65565691136091      0.00006847700849
H          -4.60288239689184      1.56371892248403      0.00002378375357
H          -4.19996760244314      0.06636471722196      0.90775693220812
H          -4.20002007511970      0.06623874429631     -0.90752475328728
H          -0.25881356371464      1.93607439443420     -0.00008040632701
*
