!PBE0 def2-SV(p) Opt Freq d3 TightSCF SlowConv RIJCOSX defgrid2
 
%pal
nprocs 4
end
 
%scf
MaxIter 1500
end
 
%maxcore 3000
 

 
* xyz 0 1
C    -1.2182017    1.1615497    0.0144047 
C    -2.5385391    1.3030345   -0.3713479 
C    -3.3781950    0.2060819   -0.4467486 
C    -2.8763854   -1.0422296   -0.1133369 
C    -1.5625597   -1.1913756    0.2797047 
C    -0.6933723   -0.0931409    0.3443994 
N     0.6050076   -0.2723581    0.8009115 
C     1.3997178   -1.3856227    0.3147582 
H     2.0949453   -1.6817177    1.1072858 
H     0.7684926   -2.2327716    0.0581161 
C     2.1995898   -0.9580529   -0.9266867 
H     1.4971021   -0.7088277   -1.7390870 
H     2.8637326   -1.7590601   -1.2555595 
O     3.0294050    0.1523903   -0.6546884 
C     2.2699588    1.2504033   -0.1873891 
H     2.9865410    2.0427528    0.0352704 
H     1.5841244    1.5885862   -0.9798664 
C     1.4712859    0.8597729    1.0639710 
H     0.8939594    1.7017158    1.4413816 
H     2.1782825    0.5484584    1.8414596 
H    -1.2117236   -2.1722883    0.5616531 
H    -3.5196173   -1.9102214   -0.1514510 
H    -4.4065205    0.3208729   -0.7555754 
H    -2.9100576    2.2859465   -0.6262704 
H    -0.5973457    2.0433417    0.0428756
*
