C H                                     
   1.00000000000000     
    40.0000000000000000    0.0000000000000000    0.0000000000000000
     0.0000000000000000   40.0000000000000000    0.0000000000000000
     0.0000000000000000    0.0000000000000000   40.0000000000000000
   C    H 
    10    12
Selective dynamics
Direct
  0.5270458906059671  0.4681860325691259  0.5000056072593464   T   T   T
  0.5359400517509901  0.5029928926928039  0.5000037713173305   T   T   T
  0.5099763001637446  0.5272776996526689  0.5000024025107158   T   T   T
  0.4765770481958870  0.5184323687738835  0.5000002611129437   T   T   T
  0.4680839329077539  0.4833828325119292  0.5000016312032135   T   T   T
  0.4939417291681009  0.4590516572170393  0.5000044430611628   T   T   T
  0.4325686327436203  0.4727633337485859  0.4999994517124116   T   T   T
  0.4497610623731356  0.5444789407842807  0.4999978457844043   T   T   T
  0.5698167959810500  0.5143882320925083  0.5000023489736796   T   T   T
  0.5976169448625229  0.4943363324555582  0.4999931017180468   T   T   T
  0.4870570816979554  0.4326824969122250  0.5000073277090273   T   T   T
  0.4299129924182752  0.4455307104468081  0.5000016202566121   T   T   T
  0.4194174419108113  0.4831816196298545  0.4781036036597632   T   T   T
  0.4194146310337657  0.4831852143714512  0.5218919312441785   T   T   T
  0.4335085463373429  0.5418412789223700  0.5220497433427508   T   T   T
  0.4335072457714045  0.5418369326788514  0.4779473096726284   T   T   T
  0.4605120718494896  0.5696691933361734  0.4999949228671217   T   T   T
  0.5169255218164230  0.5536520879616645  0.5000013152987595   T   T   T
  0.5961845030087908  0.4671287752341134  0.4999842121175547   T   T   T
  0.6224565900830689  0.5054953957356033  0.4999917694303080   T   T   T
  0.5733963044877446  0.5414722910060722  0.5000078957697218   T   T   T
  0.5463776808321513  0.4490346812664620  0.5000074839783188   T   T   T
 
  0.00000000E+00  0.00000000E+00  0.00000000E+00
  0.00000000E+00  0.00000000E+00  0.00000000E+00
  0.00000000E+00  0.00000000E+00  0.00000000E+00
  0.00000000E+00  0.00000000E+00  0.00000000E+00
  0.00000000E+00  0.00000000E+00  0.00000000E+00
  0.00000000E+00  0.00000000E+00  0.00000000E+00
  0.00000000E+00  0.00000000E+00  0.00000000E+00
  0.00000000E+00  0.00000000E+00  0.00000000E+00
  0.00000000E+00  0.00000000E+00  0.00000000E+00
  0.00000000E+00  0.00000000E+00  0.00000000E+00
  0.00000000E+00  0.00000000E+00  0.00000000E+00
  0.00000000E+00  0.00000000E+00  0.00000000E+00
  0.00000000E+00  0.00000000E+00  0.00000000E+00
  0.00000000E+00  0.00000000E+00  0.00000000E+00
  0.00000000E+00  0.00000000E+00  0.00000000E+00
  0.00000000E+00  0.00000000E+00  0.00000000E+00
  0.00000000E+00  0.00000000E+00  0.00000000E+00
  0.00000000E+00  0.00000000E+00  0.00000000E+00
  0.00000000E+00  0.00000000E+00  0.00000000E+00
  0.00000000E+00  0.00000000E+00  0.00000000E+00
  0.00000000E+00  0.00000000E+00  0.00000000E+00
  0.00000000E+00  0.00000000E+00  0.00000000E+00
