!PBE0 def2-SV(p) Opt Freq d3 TightSCF SlowConv RIJCOSX defgrid2
 
%pal
nprocs 4
end
 
%scf
MaxIter 1500
end
 
%maxcore 3000
 

 
* xyz 0 1
C    -0.4981463    1.1971059    0.0233892 
C    -1.8781548    1.1903964   -0.0151073 
C    -2.5852011    0.0000463   -0.0339032 
C    -1.8782087   -1.1903331   -0.0142188 
C    -0.4982075   -1.1970870    0.0239234 
C     0.2341363    0.0000066    0.0486060 
N     1.6068859   -0.0000834    0.1265276 
C     2.3331961    1.2346463   -0.0651597 
H     3.3992573    1.0410497    0.0233510 
H     2.1406934    1.6792366   -1.0489648 
H     2.0591225    1.9577258    0.7054373 
C     2.3330270   -1.2347094   -0.0664686 
H     3.3991953   -1.0410977    0.0206178 
H     2.0600346   -1.9580994    0.7042408 
H     2.1392089   -1.6789677   -1.0501582 
H     0.0076650   -2.1484406    0.0324666 
H    -2.4091648   -2.1325053   -0.0330842 
H    -3.6648083    0.0000682   -0.0673767 
H    -2.4090463    2.1325741   -0.0353260 
H     0.0077563    2.1484475    0.0315721
*
