C H                                     
   1.00000000000000     
    40.0000000000000000    0.0000000000000000    0.0000000000000000
     0.0000000000000000   40.0000000000000000    0.0000000000000000
     0.0000000000000000    0.0000000000000000   40.0000000000000000
   C    H 
    10    12
Selective dynamics
Direct
  0.5270458091422129  0.4681863772626265  0.5000056045192230   T   T   T
  0.5359399098148736  0.5029927152806725  0.5000037699314903   T   T   T
  0.5099763097999077  0.5272776048301778  0.5000024021794398   T   T   T
  0.4765772241154436  0.5184321536436283  0.5000002615284209   T   T   T
  0.4680841095190162  0.4833829864878220  0.5000016310086615   T   T   T
  0.4939417227849915  0.4590519740989491  0.5000044406167035   T   T   T
  0.4325688103322098  0.4727636567365685  0.4999994516437291   T   T   T
  0.4497611205206938  0.5444786763266949  0.4999978457173011   T   T   T
  0.5698163333894913  0.5143882746970619  0.5000023498027956   T   T   T
  0.5976164985878585  0.4943361883582109  0.4999931056733385   T   T   T
  0.4870574118034799  0.4326831066928028  0.5000073272002560   T   T   T
  0.4299131785304606  0.4455312382536690  0.5000016201384168   T   T   T
  0.4194178876005920  0.4831813488062301  0.4781034111842181   T   T   T
  0.4194150762394487  0.4831849436713300  0.5218921238907974   T   T   T
  0.4335089873573410  0.5418412724984890  0.5220498829867215   T   T   T
  0.4335076883277548  0.5418369265068030  0.4779471724193139   T   T   T
  0.4605120231860242  0.5696687007494713  0.4999949229856517   T   T   T
  0.5169254101433267  0.5536516554681163  0.5000013152593543   T   T   T
  0.5961844416566789  0.4671290691897282  0.4999842127476425   T   T   T
  0.6224557891684684  0.5054953995878408  0.4999917700194622   T   T   T
  0.5733961407856255  0.5414718058491467  0.5000078952007444   T   T   T
  0.5463771171940957  0.4490349250039929  0.5000074833463181   T   T   T
 
  0.00000000E+00  0.00000000E+00  0.00000000E+00
  0.00000000E+00  0.00000000E+00  0.00000000E+00
  0.00000000E+00  0.00000000E+00  0.00000000E+00
  0.00000000E+00  0.00000000E+00  0.00000000E+00
  0.00000000E+00  0.00000000E+00  0.00000000E+00
  0.00000000E+00  0.00000000E+00  0.00000000E+00
  0.00000000E+00  0.00000000E+00  0.00000000E+00
  0.00000000E+00  0.00000000E+00  0.00000000E+00
  0.00000000E+00  0.00000000E+00  0.00000000E+00
  0.00000000E+00  0.00000000E+00  0.00000000E+00
  0.00000000E+00  0.00000000E+00  0.00000000E+00
  0.00000000E+00  0.00000000E+00  0.00000000E+00
  0.00000000E+00  0.00000000E+00  0.00000000E+00
  0.00000000E+00  0.00000000E+00  0.00000000E+00
  0.00000000E+00  0.00000000E+00  0.00000000E+00
  0.00000000E+00  0.00000000E+00  0.00000000E+00
  0.00000000E+00  0.00000000E+00  0.00000000E+00
  0.00000000E+00  0.00000000E+00  0.00000000E+00
  0.00000000E+00  0.00000000E+00  0.00000000E+00
  0.00000000E+00  0.00000000E+00  0.00000000E+00
  0.00000000E+00  0.00000000E+00  0.00000000E+00
  0.00000000E+00  0.00000000E+00  0.00000000E+00
