!r2SCAN aug-cc-pVTZ d3 TightSCF SlowConv RIJCOSX defgrid2

%pal
nprocs 15
end

%scf
MaxIter 1500
end

%maxcore 3500

!CPCM
%cpcm smd true
SMDsolvent "WATER"
surfacetype gepol_ses
rsolv 1.40
end

* xyz 0 2
O           1.91470638718140      3.68438074947034      1.42427791228666
N           2.68096308945993      2.69375168448893      1.26769968685529
C           3.77391580515862      2.86611617790763      0.27680202232567
C           4.43155802114185      1.51994211991304     -0.03530115296342
C           4.73340248947632      0.69829774992947      1.21810391563609
C           3.42519309826840      0.42580302914814      1.94119980726915
C           2.70579217610673      1.70523956651208      2.37690104523736
C           4.79322172800676      3.87508980195447      0.82020172066500
C           3.14425995359759      3.42149633811360     -0.99940045320580
C           3.37488386456858      2.34129799708755      3.60196963848657
C           1.25335355183061      1.37175446215543      2.71392471745753
H           5.35765292922926      1.70556085241930     -0.60472877121535
H           3.75876551381861      0.92933792835036     -0.68368429967338
H           5.42888308378114      1.26691647113913      1.85777249757383
H           3.58597216229996     -0.20127854132091      2.83446428065128
H           2.76741452667512     -0.15000338556619      1.26812064668017
H           4.26369527400293      4.78489567317599      1.14666574670165
H           5.36148593564960      3.47818359531948      1.67676804635832
H           5.51454614342091      4.14822445029490      0.03143381287120
H           2.68677781882656      4.40345192403324     -0.80882149057439
H           2.35856298596588      2.74147992136098     -1.37017141185833
H           3.91629839859089      3.52710620200660     -1.78046613000472
H           2.90751365674073      3.31881435496866      3.80391606383020
H           4.45686105296294      2.49742578329982      3.46040550353472
H           3.23836167981079      1.69582567705536      4.48654381685627
H           0.71883159023383      2.26983495660360      3.05695397631866
H           0.73234928593055      0.97814208936524      1.82472152714422
H           1.22257422130559      0.60584599485455      3.50731645957130
C           5.50980399137963     -0.53351097116185      0.81636396333535
O           6.67868338961729     -0.53392563796249      0.53412674849617
O           4.75697757690545     -1.64256703152170      0.76161649704885
H           5.34368613905548     -2.36501696039479      0.46736191230387
*
