C N H                                   
   1.00000000000000     
    40.0000000000000000    0.0000000000000000    0.0000000000000000
     0.0000000000000000   40.0000000000000000    0.0000000000000000
     0.0000000000000000    0.0000000000000000   40.0000000000000000
   C    N    H 
     8     2     4
Selective dynamics
Direct
  0.4698286475993657  0.4902274751113386  0.4999992199354150   T   T   T
  0.4697391405150951  0.5254299835632381  0.5000041908382743   T   T   T
  0.5000007106415220  0.5427386998860957  0.4999997268965198   T   T   T
  0.5302619075875222  0.5254288752791828  0.4999935898623122   T   T   T
  0.5301710625885775  0.4902259865562933  0.4999916885333412   T   T   T
  0.4999993145546004  0.4723561125770659  0.4999925330413565   T   T   T
  0.5611232001820018  0.4724068338984262  0.5000040728766530   T   T   T
  0.4388750781475940  0.4724100523549399  0.4999995564197558   T   T   T
  0.5864997175282759  0.4579448721576801  0.5000221521324900   T   T   T
  0.4134976809286219  0.4579481092807695  0.4999973935958043   T   T   T
  0.4999985997118654  0.4451445218098543  0.4999925257441057   T   T   T
  0.5539361777547973  0.5388797634619507  0.4999916090182425   T   T   T
  0.5000013596129567  0.5699788049557144  0.5000030761865739   T   T   T
  0.4460654026472092  0.5388819091074454  0.5000096649191320   T   T   T
 
  0.00000000E+00  0.00000000E+00  0.00000000E+00
  0.00000000E+00  0.00000000E+00  0.00000000E+00
  0.00000000E+00  0.00000000E+00  0.00000000E+00
  0.00000000E+00  0.00000000E+00  0.00000000E+00
  0.00000000E+00  0.00000000E+00  0.00000000E+00
  0.00000000E+00  0.00000000E+00  0.00000000E+00
  0.00000000E+00  0.00000000E+00  0.00000000E+00
  0.00000000E+00  0.00000000E+00  0.00000000E+00
  0.00000000E+00  0.00000000E+00  0.00000000E+00
  0.00000000E+00  0.00000000E+00  0.00000000E+00
  0.00000000E+00  0.00000000E+00  0.00000000E+00
  0.00000000E+00  0.00000000E+00  0.00000000E+00
  0.00000000E+00  0.00000000E+00  0.00000000E+00
  0.00000000E+00  0.00000000E+00  0.00000000E+00
