C N H                                   
   1.00000000000000     
    40.0000000000000000    0.0000000000000000    0.0000000000000000
     0.0000000000000000   40.0000000000000000    0.0000000000000000
     0.0000000000000000    0.0000000000000000   40.0000000000000000
   C    N    H 
     9     1     7
Selective dynamics
Direct
  0.5289785410857167  0.4682239818838906  0.5000000000000000   T   T   T
  0.5592987243236176  0.4864407761140267  0.5000000000000000   T   T   T
  0.5587734341716766  0.5211749317288504  0.5000000000000000   T   T   T
  0.5280064136410019  0.5384031047811835  0.5000000000000000   T   T   T
  0.4970857851080280  0.5206220780754780  0.5000000000000000   T   T   T
  0.4394373530184348  0.5214535041716251  0.5000000000000000   T   T   T
  0.4374109603889832  0.4864257114575539  0.5000000000000000   T   T   T
  0.4669499089268739  0.4677415013557800  0.5000000000000000   T   T   T
  0.4977021678615474  0.4849235720920657  0.5000000000000000   T   T   T
  0.4683725088807399  0.5385476852965478  0.5000000000000000   T   T   T
  0.4664559808778593  0.4404903285783704  0.5000000000000000   T   T   T
  0.4131165036194893  0.4741548191982372  0.5000000000000000   T   T   T
  0.4166533011878952  0.5364840831100076  0.5000000000000000   T   T   T
  0.5272616975812695  0.5656460512390917  0.5000000000000000   T   T   T
  0.5820304744289995  0.5353182361283234  0.5000000000000000   T   T   T
  0.5829575742026305  0.4729861495951599  0.5000000000000000   T   T   T
  0.5295096706952624  0.4409624851938171  0.5000000000000000   T   T   T
 
  0.00000000E+00  0.00000000E+00  0.00000000E+00
  0.00000000E+00  0.00000000E+00  0.00000000E+00
  0.00000000E+00  0.00000000E+00  0.00000000E+00
  0.00000000E+00  0.00000000E+00  0.00000000E+00
  0.00000000E+00  0.00000000E+00  0.00000000E+00
  0.00000000E+00  0.00000000E+00  0.00000000E+00
  0.00000000E+00  0.00000000E+00  0.00000000E+00
  0.00000000E+00  0.00000000E+00  0.00000000E+00
  0.00000000E+00  0.00000000E+00  0.00000000E+00
  0.00000000E+00  0.00000000E+00  0.00000000E+00
  0.00000000E+00  0.00000000E+00  0.00000000E+00
  0.00000000E+00  0.00000000E+00  0.00000000E+00
  0.00000000E+00  0.00000000E+00  0.00000000E+00
  0.00000000E+00  0.00000000E+00  0.00000000E+00
  0.00000000E+00  0.00000000E+00  0.00000000E+00
  0.00000000E+00  0.00000000E+00  0.00000000E+00
  0.00000000E+00  0.00000000E+00  0.00000000E+00
