C Cl O H                                
   1.00000000000000     
    40.0000000000000000    0.0000000000000000    0.0000000000000000
     0.0000000000000000   40.0000000000000000    0.0000000000000000
     0.0000000000000000    0.0000000000000000   40.0000000000000000
   C    Cl   O    H 
     8     1     1     7
Selective dynamics
Direct
  0.5095834208561748  0.5231191518321148  0.5000293179594606   T   T   T
  0.5442868820460643  0.5236982475644234  0.4999886494340778   T   T   T
  0.5616385597314425  0.4935756229106640  0.4999948564386073   T   T   T
  0.5448940811707577  0.4630239265446566  0.5000016539281057   T   T   T
  0.5102844579547802  0.4628717471242278  0.5000011222872149   T   T   T
  0.4921452768572814  0.4928119241552962  0.5000254517680418   T   T   T
  0.4549150780969595  0.4912333148896630  0.5000092747750235   T   T   T
  0.4354125583748836  0.5234706568015611  0.4999964067864911   T   T   T
  0.6048119437525106  0.4940068534670721  0.5000052349631976   T   T   T
  0.4405317277148135  0.4641483686962984  0.4999892694683498   T   T   T
  0.4415107790221361  0.5385361323662174  0.5219685082852140   T   T   T
  0.4415482383875800  0.5385201895591260  0.4780241948907133   T   T   T
  0.4088187138299131  0.5178098043835916  0.4999743092979391   T   T   T
  0.4966045597678712  0.4394887458955214  0.4999705589803923   T   T   T
  0.5589724712853534  0.4399133203814840  0.5000061734146073   T   T   T
  0.5578382697761562  0.5471142826914783  0.4999588299842673   T   T   T
  0.4962019813753243  0.5466597107366344  0.5000571873382937   T   T   T
 
  0.00000000E+00  0.00000000E+00  0.00000000E+00
  0.00000000E+00  0.00000000E+00  0.00000000E+00
  0.00000000E+00  0.00000000E+00  0.00000000E+00
  0.00000000E+00  0.00000000E+00  0.00000000E+00
  0.00000000E+00  0.00000000E+00  0.00000000E+00
  0.00000000E+00  0.00000000E+00  0.00000000E+00
  0.00000000E+00  0.00000000E+00  0.00000000E+00
  0.00000000E+00  0.00000000E+00  0.00000000E+00
  0.00000000E+00  0.00000000E+00  0.00000000E+00
  0.00000000E+00  0.00000000E+00  0.00000000E+00
  0.00000000E+00  0.00000000E+00  0.00000000E+00
  0.00000000E+00  0.00000000E+00  0.00000000E+00
  0.00000000E+00  0.00000000E+00  0.00000000E+00
  0.00000000E+00  0.00000000E+00  0.00000000E+00
  0.00000000E+00  0.00000000E+00  0.00000000E+00
  0.00000000E+00  0.00000000E+00  0.00000000E+00
  0.00000000E+00  0.00000000E+00  0.00000000E+00
