C H                                     
   1.00000000000000     
    40.0000000000000000    0.0000000000000000    0.0000000000000000
     0.0000000000000000   40.0000000000000000    0.0000000000000000
     0.0000000000000000    0.0000000000000000   40.0000000000000000
   C    H 
    10     8
Selective dynamics
Direct
  0.5609961437786902  0.4826644066522562  0.5000000000000000   T   T   T
  0.5609961437786902  0.5173335933477488  0.5000000000000000   T   T   T
  0.5307461395647303  0.5349910420228642  0.5000000000000000   T   T   T
  0.5000000000000000  0.5178432823706075  0.5000000000000000   T   T   T
  0.4692548604352743  0.5349920420228617  0.5000000000000000   T   T   T
  0.4390038562213098  0.5173355933477437  0.5000000000000000   T   T   T
  0.4390038562213098  0.4826664066522512  0.5000000000000000   T   T   T
  0.4692538604352697  0.4650089579771357  0.5000000000000000   T   T   T
  0.5000000000000000  0.4821567176293926  0.5000000000000000   T   T   T
  0.5307451395647257  0.4650079579771382  0.5000000000000000   T   T   T
  0.5308625797259562  0.4379225396048470  0.5000000000000000   T   T   T
  0.4691354202740418  0.4379235396048516  0.5000000000000000   T   T   T
  0.4156189056713246  0.4690684366962420  0.5000000000000000   T   T   T
  0.4156199056713221  0.5309345633037575  0.5000000000000000   T   T   T
  0.4691374202740439  0.5620774603951533  0.5000000000000000   T   T   T
  0.5308645797259582  0.5620764603951487  0.5000000000000000   T   T   T
  0.5843810943286752  0.5309315633037580  0.5000000000000000   T   T   T
  0.5843800943286778  0.4690664366962471  0.5000000000000000   T   T   T
 
  0.00000000E+00  0.00000000E+00  0.00000000E+00
  0.00000000E+00  0.00000000E+00  0.00000000E+00
  0.00000000E+00  0.00000000E+00  0.00000000E+00
  0.00000000E+00  0.00000000E+00  0.00000000E+00
  0.00000000E+00  0.00000000E+00  0.00000000E+00
  0.00000000E+00  0.00000000E+00  0.00000000E+00
  0.00000000E+00  0.00000000E+00  0.00000000E+00
  0.00000000E+00  0.00000000E+00  0.00000000E+00
  0.00000000E+00  0.00000000E+00  0.00000000E+00
  0.00000000E+00  0.00000000E+00  0.00000000E+00
  0.00000000E+00  0.00000000E+00  0.00000000E+00
  0.00000000E+00  0.00000000E+00  0.00000000E+00
  0.00000000E+00  0.00000000E+00  0.00000000E+00
  0.00000000E+00  0.00000000E+00  0.00000000E+00
  0.00000000E+00  0.00000000E+00  0.00000000E+00
  0.00000000E+00  0.00000000E+00  0.00000000E+00
  0.00000000E+00  0.00000000E+00  0.00000000E+00
  0.00000000E+00  0.00000000E+00  0.00000000E+00
