C F O H                                 
   1.00000000000000     
    40.0000000000000000    0.0000000000000000    0.0000000000000000
     0.0000000000000000   40.0000000000000000    0.0000000000000000
     0.0000000000000000    0.0000000000000000   40.0000000000000000
   C    F    O    H 
     9     3     1     7
Selective dynamics
Direct
  0.5065351359539108  0.5368120924847162  0.5001203722523826   T   T   T
  0.4720454196865802  0.5368461251146712  0.5004305407402398   T   T   T
  0.4538904905237615  0.5063139398248495  0.5009037935919167   T   T   T
  0.4721786864135069  0.4757697692346383  0.5006862061324213   T   T   T
  0.5067208665109248  0.4758193688650465  0.5003491215488580   T   T   T
  0.5255892170430556  0.5063710221398594  0.5000891440703867   T   T   T
  0.5615869186341982  0.5075246816965020  0.4997643678576651   T   T   T
  0.5811244140340293  0.4748462523459551  0.4996112471515843   T   T   T
  0.4173007053201658  0.5056874184807043  0.5001140211288870   T   T   T
  0.4035023989412565  0.4952729431661282  0.4692560950136624   T   T   T
  0.4030089697386217  0.4833446942684034  0.5227487743591155   T   T   T
  0.4026405510029960  0.5361729286650387  0.5062493083633228   T   T   T
  0.5778297384954456  0.5351297657376293  0.4995890562335674   T   T   T
  0.5756672690662796  0.4594217412997992  0.5217955944955222   T   T   T
  0.5752026309988238  0.4593568908929484  0.4775894597612833   T   T   T
  0.6079478828753651  0.4805226691678044  0.4993182914031564   T   T   T
  0.5197046184068839  0.4518223990571144  0.5002673256624988   T   T   T
  0.4587231593693062  0.4520117625100752  0.5008323434120072   T   T   T
  0.4585709024282636  0.5605630574583600  0.5003870993590027   T   T   T
  0.5202300245566462  0.5603904775898059  0.4998978374625267   T   T   T
 
  0.00000000E+00  0.00000000E+00  0.00000000E+00
  0.00000000E+00  0.00000000E+00  0.00000000E+00
  0.00000000E+00  0.00000000E+00  0.00000000E+00
  0.00000000E+00  0.00000000E+00  0.00000000E+00
  0.00000000E+00  0.00000000E+00  0.00000000E+00
  0.00000000E+00  0.00000000E+00  0.00000000E+00
  0.00000000E+00  0.00000000E+00  0.00000000E+00
  0.00000000E+00  0.00000000E+00  0.00000000E+00
  0.00000000E+00  0.00000000E+00  0.00000000E+00
  0.00000000E+00  0.00000000E+00  0.00000000E+00
  0.00000000E+00  0.00000000E+00  0.00000000E+00
  0.00000000E+00  0.00000000E+00  0.00000000E+00
  0.00000000E+00  0.00000000E+00  0.00000000E+00
  0.00000000E+00  0.00000000E+00  0.00000000E+00
  0.00000000E+00  0.00000000E+00  0.00000000E+00
  0.00000000E+00  0.00000000E+00  0.00000000E+00
  0.00000000E+00  0.00000000E+00  0.00000000E+00
  0.00000000E+00  0.00000000E+00  0.00000000E+00
  0.00000000E+00  0.00000000E+00  0.00000000E+00
  0.00000000E+00  0.00000000E+00  0.00000000E+00
