C H                                     
   1.00000000000000     
    40.0000000000000000    0.0000000000000000    0.0000000000000000
     0.0000000000000000   40.0000000000000000    0.0000000000000000
     0.0000000000000000    0.0000000000000000   40.0000000000000000
   C    H 
    10    12
Selective dynamics
Direct
  0.5269173688552630  0.4683219421710951  0.5000058183016923   T   T   T
  0.5357914628120446  0.5029996915119751  0.5000034304078577   T   T   T
  0.5099274006459539  0.5272503501308201  0.5000020303164203   T   T   T
  0.4767319927493356  0.5184077522331086  0.5000004990931312   T   T   T
  0.4682675196137097  0.4834896737369383  0.5000013998433541   T   T   T
  0.4939811431187491  0.4592285344097986  0.5000031630665888   T   T   T
  0.4328233730136872  0.4729278163648603  0.4999998760774792   T   T   T
  0.4499089128243162  0.5443056265438071  0.4999980715272453   T   T   T
  0.5694696245692422  0.5142567949374792  0.5000030488657450   T   T   T
  0.5972080104108833  0.4942537668670819  0.4999940963442037   T   T   T
  0.4871093228113516  0.4330288325452653  0.5000069372643638   T   T   T
  0.4303029536824983  0.4458633359265922  0.5000011869728476   T   T   T
  0.4198072887865939  0.4832195626974517  0.4782001293705827   T   T   T
  0.4198028446017766  0.4832229951874993  0.5217951969607298   T   T   T
  0.4337928064547200  0.5416226038837391  0.5219264833683642   T   T   T
  0.4337921628202515  0.5416179349263645  0.4780704755192884   T   T   T
  0.4605992048702103  0.5693232804070556  0.4999949489470670   T   T   T
  0.5168442011884289  0.5534602426924421  0.4999996782555478   T   T   T
  0.5958693945170754  0.4672527977141575  0.4999858131512937   T   T   T
  0.6218122815244153  0.5054731527172599  0.4999923678535048   T   T   T
  0.5730906396354508  0.5411457269693165  0.5000071902970643   T   T   T
  0.5461490904940451  0.4493285854259113  0.5000081581956357   T   T   T
 
  0.00000000E+00  0.00000000E+00  0.00000000E+00
  0.00000000E+00  0.00000000E+00  0.00000000E+00
  0.00000000E+00  0.00000000E+00  0.00000000E+00
  0.00000000E+00  0.00000000E+00  0.00000000E+00
  0.00000000E+00  0.00000000E+00  0.00000000E+00
  0.00000000E+00  0.00000000E+00  0.00000000E+00
  0.00000000E+00  0.00000000E+00  0.00000000E+00
  0.00000000E+00  0.00000000E+00  0.00000000E+00
  0.00000000E+00  0.00000000E+00  0.00000000E+00
  0.00000000E+00  0.00000000E+00  0.00000000E+00
  0.00000000E+00  0.00000000E+00  0.00000000E+00
  0.00000000E+00  0.00000000E+00  0.00000000E+00
  0.00000000E+00  0.00000000E+00  0.00000000E+00
  0.00000000E+00  0.00000000E+00  0.00000000E+00
  0.00000000E+00  0.00000000E+00  0.00000000E+00
  0.00000000E+00  0.00000000E+00  0.00000000E+00
  0.00000000E+00  0.00000000E+00  0.00000000E+00
  0.00000000E+00  0.00000000E+00  0.00000000E+00
  0.00000000E+00  0.00000000E+00  0.00000000E+00
  0.00000000E+00  0.00000000E+00  0.00000000E+00
  0.00000000E+00  0.00000000E+00  0.00000000E+00
  0.00000000E+00  0.00000000E+00  0.00000000E+00
