C N H                                   
   1.00000000000000     
    40.0000000000000000    0.0000000000000000    0.0000000000000000
     0.0000000000000000   40.0000000000000000    0.0000000000000000
     0.0000000000000000    0.0000000000000000   40.0000000000000000
   C    N    H 
     5     1    11
Selective dynamics
Direct
  0.4661666581094464  0.4999886402510405  0.5032240142982882   T   T   T
  0.4847797697437359  0.4685553360792534  0.4927569963331278   T   T   T
  0.5211986990957928  0.4692174647821579  0.5071230237723713   T   T   T
  0.5211774171927552  0.5308025708407873  0.5071120810813110   T   T   T
  0.4847562152258484  0.5314295705482134  0.4927475988938491   T   T   T
  0.5361062284608127  0.5000123647739289  0.4969309696738483   T   T   T
  0.5525084981644651  0.5000158856997678  0.4775216694693161   T   T   T
  0.4730966062822820  0.5541362468489279  0.5023637932294442   T   T   T
  0.4861470879023344  0.5335019855821771  0.4655523909302899   T   T   T
  0.5359118552672618  0.5517611982549294  0.4980764290178873   T   T   T
  0.5196672584363473  0.5310922231567947  0.5344012096263994   T   T   T
  0.5359517833824908  0.4482660715635832  0.4980955178444507   T   T   T
  0.5196908618190422  0.4689349099556578  0.5344129280606735   T   T   T
  0.4731372281902734  0.4458416418675373  0.5023792667781115   T   T   T
  0.4861759972672627  0.4664781352255113  0.4655623331265038   T   T   T
  0.4414562017241742  0.4999764627292888  0.4914593628143743   T   T   T
  0.4620726337356723  0.4999902918404481  0.5302804150497318   T   T   T
 
  0.00000000E+00  0.00000000E+00  0.00000000E+00
  0.00000000E+00  0.00000000E+00  0.00000000E+00
  0.00000000E+00  0.00000000E+00  0.00000000E+00
  0.00000000E+00  0.00000000E+00  0.00000000E+00
  0.00000000E+00  0.00000000E+00  0.00000000E+00
  0.00000000E+00  0.00000000E+00  0.00000000E+00
  0.00000000E+00  0.00000000E+00  0.00000000E+00
  0.00000000E+00  0.00000000E+00  0.00000000E+00
  0.00000000E+00  0.00000000E+00  0.00000000E+00
  0.00000000E+00  0.00000000E+00  0.00000000E+00
  0.00000000E+00  0.00000000E+00  0.00000000E+00
  0.00000000E+00  0.00000000E+00  0.00000000E+00
  0.00000000E+00  0.00000000E+00  0.00000000E+00
  0.00000000E+00  0.00000000E+00  0.00000000E+00
  0.00000000E+00  0.00000000E+00  0.00000000E+00
  0.00000000E+00  0.00000000E+00  0.00000000E+00
  0.00000000E+00  0.00000000E+00  0.00000000E+00
