C N H                                   
   1.00000000000000     
    40.0000000000000000    0.0000000000000000    0.0000000000000000
     0.0000000000000000   40.0000000000000000    0.0000000000000000
     0.0000000000000000    0.0000000000000000   40.0000000000000000
   C    N    H 
     9     2    16
Selective dynamics
Direct
  0.5680507604288242  0.4779060947955037  0.5128899217242124   T   T   T
  0.5109698154731116  0.4806813522560737  0.4935945507984220   T   T   T
  0.4811401082071664  0.5344081131665851  0.4872948220426483   T   T   T
  0.4528535152222955  0.5276568829167818  0.5123957700166076   T   T   T
  0.4318736949620758  0.4964649492850185  0.5051361397814615   T   T   T
  0.4510814770115173  0.4634239543995154  0.5064403886226089   T   T   T
  0.4808259362241284  0.4616929336366681  0.4818893323549966   T   T   T
  0.5421954418279961  0.5327686650054070  0.5015919884889886   T   T   T
  0.5727315210706765  0.5112745199941405  0.4951649303930478   T   T   T
  0.5355212102274178  0.4636279765117087  0.5079734763593290   T   T   T
  0.5115975045158389  0.5145203219551948  0.4928722407367508   T   T   T
  0.4732624595135054  0.4710347024420745  0.4571185360214639   T   T   T
  0.4888867889845478  0.4356586326663937  0.4788657558729611   T   T   T
  0.4602114132073334  0.4585313478999116  0.5319662303090034   T   T   T
  0.4339744381085913  0.4428584943663147  0.5001224826543483   T   T   T
  0.4110796062033017  0.4954659281848289  0.5231130244148379   T   T   T
  0.4204691272387300  0.4991785245891622  0.4801699485260821   T   T   T
  0.4634847593304253  0.5267716876171638  0.5377827471592462   T   T   T
  0.4365339841175675  0.5497671988602731  0.5114789348263599   T   T   T
  0.4725599650361730  0.5295804763722931  0.4615498519310592   T   T   T
  0.4889173614117102  0.5606110539932454  0.4886600489932896   T   T   T
  0.5951820243172966  0.5240865758881291  0.5042837605312437   T   T   T
  0.5756457035811785  0.5071742668917297  0.4681485952651470   T   T   T
  0.5424209534242351  0.5556338813075077  0.4864062181966229   T   T   T
  0.5402022029305691  0.5405632281524069  0.5279928004911070   T   T   T
  0.5717680077555172  0.4796124405426981  0.5402822818716287   T   T   T
  0.5865592196682796  0.4590467963032679  0.5048152216165276   T   T   T
 
  0.00000000E+00  0.00000000E+00  0.00000000E+00
  0.00000000E+00  0.00000000E+00  0.00000000E+00
  0.00000000E+00  0.00000000E+00  0.00000000E+00
  0.00000000E+00  0.00000000E+00  0.00000000E+00
  0.00000000E+00  0.00000000E+00  0.00000000E+00
  0.00000000E+00  0.00000000E+00  0.00000000E+00
  0.00000000E+00  0.00000000E+00  0.00000000E+00
  0.00000000E+00  0.00000000E+00  0.00000000E+00
  0.00000000E+00  0.00000000E+00  0.00000000E+00
  0.00000000E+00  0.00000000E+00  0.00000000E+00
  0.00000000E+00  0.00000000E+00  0.00000000E+00
  0.00000000E+00  0.00000000E+00  0.00000000E+00
  0.00000000E+00  0.00000000E+00  0.00000000E+00
  0.00000000E+00  0.00000000E+00  0.00000000E+00
  0.00000000E+00  0.00000000E+00  0.00000000E+00
  0.00000000E+00  0.00000000E+00  0.00000000E+00
  0.00000000E+00  0.00000000E+00  0.00000000E+00
  0.00000000E+00  0.00000000E+00  0.00000000E+00
  0.00000000E+00  0.00000000E+00  0.00000000E+00
  0.00000000E+00  0.00000000E+00  0.00000000E+00
  0.00000000E+00  0.00000000E+00  0.00000000E+00
  0.00000000E+00  0.00000000E+00  0.00000000E+00
  0.00000000E+00  0.00000000E+00  0.00000000E+00
  0.00000000E+00  0.00000000E+00  0.00000000E+00
  0.00000000E+00  0.00000000E+00  0.00000000E+00
  0.00000000E+00  0.00000000E+00  0.00000000E+00
  0.00000000E+00  0.00000000E+00  0.00000000E+00
