C H                                     
   1.00000000000000     
    40.0000000000000000    0.0000000000000000    0.0000000000000000
     0.0000000000000000   40.0000000000000000    0.0000000000000000
     0.0000000000000000    0.0000000000000000   40.0000000000000000
   C    H 
     9    12
Selective dynamics
Direct
  0.4735642704699927  0.4773787140532022  0.4999698411536997   T   T   T
  0.5063517429013089  0.4652492424203061  0.4999523299129294   T   T   T
  0.5134948727216866  0.4282318892167183  0.5000108581400653   T   T   T
  0.5328070693197731  0.4884215381976915  0.4999267431554770   T   T   T
  0.5269056221255966  0.5228830414223680  0.4999115150488436   T   T   T
  0.5554102415556628  0.5475562795580444  0.5000155625719529   T   T   T
  0.4936260217749222  0.5342320278674393  0.4999087779568825   T   T   T
  0.4667343091506098  0.5118772043026212  0.4999527189913948   T   T   T
  0.4310940341290603  0.5241936254130906  0.5000260353206443   T   T   T
  0.4903306639317861  0.4135292915900948  0.4990724173873815   T   T   T
  0.5273521867958664  0.4208666207408598  0.5226230924731752   T   T   T
  0.5290712944506808  0.4210870914253775  0.4784826107423967   T   T   T
  0.5797062901938546  0.5348665741232992  0.4985281879069703   T   T   T
  0.5535224428074415  0.5650041191305561  0.4788276837679675   T   T   T
  0.5551833286795329  0.5628352845054323  0.5229094285136426   T   T   T
  0.4171074700009427  0.5142279351819496  0.4785339463390059   T   T   T
  0.4299260591023923  0.5516025432993104  0.4990377220099163   T   T   T
  0.4178216864169570  0.5159102083318885  0.5226660459764858   T   T   T
  0.4886358110936726  0.5611191191258911  0.4998472720346712   T   T   T
  0.5585841134142342  0.4793052703622251  0.4998701486407171   T   T   T
  0.4527704689640117  0.4596223797316128  0.4999270619557734   T   T   T
 
  0.00000000E+00  0.00000000E+00  0.00000000E+00
  0.00000000E+00  0.00000000E+00  0.00000000E+00
  0.00000000E+00  0.00000000E+00  0.00000000E+00
  0.00000000E+00  0.00000000E+00  0.00000000E+00
  0.00000000E+00  0.00000000E+00  0.00000000E+00
  0.00000000E+00  0.00000000E+00  0.00000000E+00
  0.00000000E+00  0.00000000E+00  0.00000000E+00
  0.00000000E+00  0.00000000E+00  0.00000000E+00
  0.00000000E+00  0.00000000E+00  0.00000000E+00
  0.00000000E+00  0.00000000E+00  0.00000000E+00
  0.00000000E+00  0.00000000E+00  0.00000000E+00
  0.00000000E+00  0.00000000E+00  0.00000000E+00
  0.00000000E+00  0.00000000E+00  0.00000000E+00
  0.00000000E+00  0.00000000E+00  0.00000000E+00
  0.00000000E+00  0.00000000E+00  0.00000000E+00
  0.00000000E+00  0.00000000E+00  0.00000000E+00
  0.00000000E+00  0.00000000E+00  0.00000000E+00
  0.00000000E+00  0.00000000E+00  0.00000000E+00
  0.00000000E+00  0.00000000E+00  0.00000000E+00
  0.00000000E+00  0.00000000E+00  0.00000000E+00
  0.00000000E+00  0.00000000E+00  0.00000000E+00
