C F N O H                               
   1.00000000000000     
    40.0000000000000000    0.0000000000000000    0.0000000000000000
     0.0000000000000000   40.0000000000000000    0.0000000000000000
     0.0000000000000000    0.0000000000000000   40.0000000000000000
   C    F    N    O    H 
     6     1     1     2     4
Selective dynamics
Direct
  0.4701732832805587  0.4693176185436059  0.4999980734801764   T   T   T
  0.5049544464784597  0.4693797847486418  0.4999976850560215   T   T   T
  0.5218631196741463  0.4999995101440918  0.4999997852686529   T   T   T
  0.5049547893479295  0.5306200847187941  0.5000038721120861   T   T   T
  0.4701735905905454  0.5306823421046902  0.5000019227376540   T   T   T
  0.4536722345630780  0.5000001533942615  0.4999993817662385   T   T   T
  0.4196095439567894  0.5000002899481184  0.4999992590894731   T   T   T
  0.5584338660377143  0.4999998502676455  0.4999998342291434   T   T   T
  0.5731926650179103  0.4725884199454138  0.4999986511348880   T   T   T
  0.5731928776924351  0.5274102573667233  0.5000005844783020   T   T   T
  0.4559602016758069  0.5539007356302098  0.5000038186752056   T   T   T
  0.5189300600915393  0.5539444533085346  0.5000052285617704   T   T   T
  0.5189297755928090  0.4460550293622077  0.4999959099627370   T   T   T
  0.4559595460002569  0.4460994705170594  0.4999949934476468   T   T   T
 
  0.00000000E+00  0.00000000E+00  0.00000000E+00
  0.00000000E+00  0.00000000E+00  0.00000000E+00
  0.00000000E+00  0.00000000E+00  0.00000000E+00
  0.00000000E+00  0.00000000E+00  0.00000000E+00
  0.00000000E+00  0.00000000E+00  0.00000000E+00
  0.00000000E+00  0.00000000E+00  0.00000000E+00
  0.00000000E+00  0.00000000E+00  0.00000000E+00
  0.00000000E+00  0.00000000E+00  0.00000000E+00
  0.00000000E+00  0.00000000E+00  0.00000000E+00
  0.00000000E+00  0.00000000E+00  0.00000000E+00
  0.00000000E+00  0.00000000E+00  0.00000000E+00
  0.00000000E+00  0.00000000E+00  0.00000000E+00
  0.00000000E+00  0.00000000E+00  0.00000000E+00
  0.00000000E+00  0.00000000E+00  0.00000000E+00
