C H                                     
   1.00000000000000     
    40.0000000000000000    0.0000000000000000    0.0000000000000000
     0.0000000000000000   40.0000000000000000    0.0000000000000000
     0.0000000000000000    0.0000000000000000   40.0000000000000000
   C    H 
    12    14
Selective dynamics
Direct
  0.5117453588354399  0.4672122149547288  0.4999976043092149   T   T   T
  0.5348590515216841  0.4942663771973534  0.4999967176006302   T   T   T
  0.5219492076143223  0.5274033101727985  0.4999948667417983   T   T   T
  0.4882553498958937  0.5327891257772958  0.4999892665536010   T   T   T
  0.4651411337726621  0.5057357081199944  0.4999921402111234   T   T   T
  0.4780506714997079  0.4725986749866088  0.4999970540230467   T   T   T
  0.4303817873366624  0.5133365769257937  0.4999896047099194   T   T   T
  0.4047979943481677  0.4907364708699582  0.5000075824979218   T   T   T
  0.3691934855757460  0.5001276030657034  0.5000077029903006   T   T   T
  0.5696177020520991  0.4866633987172602  0.5000001357204615   T   T   T
  0.5952025164781731  0.5092619405224722  0.5000011441134894   T   T   T
  0.6308072991850519  0.4998711258262242  0.5000062861647757   T   T   T
  0.4612209313240728  0.4514240192897898  0.4999960249832370   T   T   T
  0.3566332402259251  0.4891897641072161  0.4782622657952856   T   T   T
  0.3654946978214168  0.5270838333299382  0.4999862076089373   T   T   T
  0.3566467448965386  0.4892286506370138  0.5217808579263737   T   T   T
  0.4102912715818949  0.4641510523352643  0.5000230466401299   T   T   T
  0.4239043026887057  0.5397293141153177  0.4999741917671144   T   T   T
  0.4785151260520274  0.5580689911768866  0.4999824944405852   T   T   T
  0.5387791372365666  0.5485777670974868  0.4999920273977020   T   T   T
  0.6433578709404026  0.5107936505197408  0.5217650558058178   T   T   T
  0.6433615503622738  0.5107865679340559  0.4782461691842084   T   T   T
  0.6345057361650064  0.4729149192067507  0.5000106977529246   T   T   T
  0.5897090725847316  0.5358479872302131  0.4999974859227722   T   T   T
  0.5760941129208119  0.4602699011203279  0.5000028424159811   T   T   T
  0.5214846470840232  0.4419320547638329  0.4999995267225862   T   T   T
 
  0.00000000E+00  0.00000000E+00  0.00000000E+00
  0.00000000E+00  0.00000000E+00  0.00000000E+00
  0.00000000E+00  0.00000000E+00  0.00000000E+00
  0.00000000E+00  0.00000000E+00  0.00000000E+00
  0.00000000E+00  0.00000000E+00  0.00000000E+00
  0.00000000E+00  0.00000000E+00  0.00000000E+00
  0.00000000E+00  0.00000000E+00  0.00000000E+00
  0.00000000E+00  0.00000000E+00  0.00000000E+00
  0.00000000E+00  0.00000000E+00  0.00000000E+00
  0.00000000E+00  0.00000000E+00  0.00000000E+00
  0.00000000E+00  0.00000000E+00  0.00000000E+00
  0.00000000E+00  0.00000000E+00  0.00000000E+00
  0.00000000E+00  0.00000000E+00  0.00000000E+00
  0.00000000E+00  0.00000000E+00  0.00000000E+00
  0.00000000E+00  0.00000000E+00  0.00000000E+00
  0.00000000E+00  0.00000000E+00  0.00000000E+00
  0.00000000E+00  0.00000000E+00  0.00000000E+00
  0.00000000E+00  0.00000000E+00  0.00000000E+00
  0.00000000E+00  0.00000000E+00  0.00000000E+00
  0.00000000E+00  0.00000000E+00  0.00000000E+00
  0.00000000E+00  0.00000000E+00  0.00000000E+00
  0.00000000E+00  0.00000000E+00  0.00000000E+00
  0.00000000E+00  0.00000000E+00  0.00000000E+00
  0.00000000E+00  0.00000000E+00  0.00000000E+00
  0.00000000E+00  0.00000000E+00  0.00000000E+00
  0.00000000E+00  0.00000000E+00  0.00000000E+00
