C H                                     
   1.00000000000000     
    40.0000000000000000    0.0000000000000000    0.0000000000000000
     0.0000000000000000   40.0000000000000000    0.0000000000000000
     0.0000000000000000    0.0000000000000000   40.0000000000000000
   C    H 
    10    12
Selective dynamics
Direct
  0.5270503885476430  0.4681651982696238  0.5000058674744707   T   T   T
  0.5359608790197612  0.5029690000954474  0.5000025232679945   T   T   T
  0.5099820985236789  0.5272447879074065  0.5000014605041017   T   T   T
  0.4765713723824376  0.5184292878676757  0.4999996013842534   T   T   T
  0.4680729229909701  0.4833709068108760  0.5000010737143938   T   T   T
  0.4939420299602730  0.4590431918500784  0.5000039265170528   T   T   T
  0.4325543151750537  0.4727457985050592  0.5000001018341464   T   T   T
  0.4497766486090313  0.5444929729684205  0.4999979824679883   T   T   T
  0.5698231632725381  0.5144010813451629  0.5000033498589929   T   T   T
  0.5976527901278814  0.4943788863034300  0.4999939423323312   T   T   T
  0.4870676356122772  0.4326583602834901  0.5000081922385533   T   T   T
  0.4298413155216210  0.4455111435941674  0.5000017375978985   T   T   T
  0.4194032853739813  0.4831794428253744  0.4781155731198865   T   T   T
  0.4193991693726318  0.4831828045855602  0.5218805826816464   T   T   T
  0.4335261937242549  0.5418804372656680  0.5220490556138913   T   T   T
  0.4335254459346345  0.5418758687185772  0.4779483271768967   T   T   T
  0.4605230822949835  0.5696840025603791  0.4999947088926504   T   T   T
  0.5169259636165009  0.5536207420512227  0.5000011094923451   T   T   T
  0.5962012617359207  0.4671864464443303  0.4999840720725146   T   T   T
  0.6224985410045747  0.5055225655128268  0.4999918008486617   T   T   T
  0.5733541576497174  0.5414840711744660  0.5000085648578931   T   T   T
  0.5463463395496362  0.4489740030607763  0.5000064460514437   T   T   T
 
  0.00000000E+00  0.00000000E+00  0.00000000E+00
  0.00000000E+00  0.00000000E+00  0.00000000E+00
  0.00000000E+00  0.00000000E+00  0.00000000E+00
  0.00000000E+00  0.00000000E+00  0.00000000E+00
  0.00000000E+00  0.00000000E+00  0.00000000E+00
  0.00000000E+00  0.00000000E+00  0.00000000E+00
  0.00000000E+00  0.00000000E+00  0.00000000E+00
  0.00000000E+00  0.00000000E+00  0.00000000E+00
  0.00000000E+00  0.00000000E+00  0.00000000E+00
  0.00000000E+00  0.00000000E+00  0.00000000E+00
  0.00000000E+00  0.00000000E+00  0.00000000E+00
  0.00000000E+00  0.00000000E+00  0.00000000E+00
  0.00000000E+00  0.00000000E+00  0.00000000E+00
  0.00000000E+00  0.00000000E+00  0.00000000E+00
  0.00000000E+00  0.00000000E+00  0.00000000E+00
  0.00000000E+00  0.00000000E+00  0.00000000E+00
  0.00000000E+00  0.00000000E+00  0.00000000E+00
  0.00000000E+00  0.00000000E+00  0.00000000E+00
  0.00000000E+00  0.00000000E+00  0.00000000E+00
  0.00000000E+00  0.00000000E+00  0.00000000E+00
  0.00000000E+00  0.00000000E+00  0.00000000E+00
  0.00000000E+00  0.00000000E+00  0.00000000E+00
