C N H                                   
   1.00000000000000     
    40.0000000000000000    0.0000000000000000    0.0000000000000000
     0.0000000000000000   40.0000000000000000    0.0000000000000000
     0.0000000000000000    0.0000000000000000   40.0000000000000000
   C    N    H 
     5     1    11
Selective dynamics
Direct
  0.4661543798171124  0.4999861715755358  0.5032448072151041   T   T   T
  0.4846662975232192  0.4684388800374535  0.4927262600447548   T   T   T
  0.5214308497907467  0.4692374280621223  0.5071554744579814   T   T   T
  0.5214024323455533  0.5307860919252363  0.5071477475401736   T   T   T
  0.4846385964939657  0.5315492686524053  0.4927165839939533   T   T   T
  0.5363427275491475  0.5000172512361800  0.4971224663606790   T   T   T
  0.5524246471142789  0.5000183454645608  0.4772630706901353   T   T   T
  0.4730469980233210  0.5544352259448004  0.5024786760907602   T   T   T
  0.4861139012966262  0.5336850386452099  0.4653676755715139   T   T   T
  0.5360751489300668  0.5519592044004966  0.4979629885249892   T   T   T
  0.5196073309822395  0.5313934166065337  0.5345998309097624   T   T   T
  0.5361226829813859  0.4480702224407054  0.4979795485146283   T   T   T
  0.5196366802837744  0.4686335646637545  0.5346117203231984   T   T   T
  0.4730973321244747  0.4455405325278647  0.5024939181711758   T   T   T
  0.4861474338017473  0.4662926077250589  0.4653773397414724   T   T   T
  0.4412781702608513  0.4999708047029259  0.4913211008011373   T   T   T
  0.4618153906814726  0.4999869453891819  0.5304307910485520   T   T   T
 
  0.00000000E+00  0.00000000E+00  0.00000000E+00
  0.00000000E+00  0.00000000E+00  0.00000000E+00
  0.00000000E+00  0.00000000E+00  0.00000000E+00
  0.00000000E+00  0.00000000E+00  0.00000000E+00
  0.00000000E+00  0.00000000E+00  0.00000000E+00
  0.00000000E+00  0.00000000E+00  0.00000000E+00
  0.00000000E+00  0.00000000E+00  0.00000000E+00
  0.00000000E+00  0.00000000E+00  0.00000000E+00
  0.00000000E+00  0.00000000E+00  0.00000000E+00
  0.00000000E+00  0.00000000E+00  0.00000000E+00
  0.00000000E+00  0.00000000E+00  0.00000000E+00
  0.00000000E+00  0.00000000E+00  0.00000000E+00
  0.00000000E+00  0.00000000E+00  0.00000000E+00
  0.00000000E+00  0.00000000E+00  0.00000000E+00
  0.00000000E+00  0.00000000E+00  0.00000000E+00
  0.00000000E+00  0.00000000E+00  0.00000000E+00
  0.00000000E+00  0.00000000E+00  0.00000000E+00
