C O S H                                 
   1.00000000000000     
    40.0000000000000000    0.0000000000000000    0.0000000000000000
     0.0000000000000000   40.0000000000000000    0.0000000000000000
     0.0000000000000000    0.0000000000000000   40.0000000000000000
   C    O    S    H 
    14     2     2    14
Selective dynamics
Direct
  0.5486493822257135  0.5326514058186109  0.5059840330308972   T   T   T
  0.5444390819558826  0.5070772457497001  0.4822267087982056   T   T   T
  0.5703722164824029  0.4856641658506696  0.4754033310618908   T   T   T
  0.6010168842863821  0.4890708578612288  0.4923415197953562   T   T   T
  0.6055499059931617  0.5149932367573757  0.5156722388666002   T   T   T
  0.5795503087574135  0.5367338927398289  0.5221715000349409   T   T   T
  0.6555107732263605  0.4664925026058069  0.5024077676503027   T   T   T
  0.4513581043719531  0.5326584591296556  0.4939774173225592   T   T   T
  0.4555741880823654  0.5070850708111704  0.5177424629189912   T   T   T
  0.4296346255134628  0.4856845090100216  0.5245925992521342   T   T   T
  0.3989847953822699  0.4891019809958960  0.5076664204002533   T   T   T
  0.3944389021810199  0.5150243404089532  0.4843403466600194   T   T   T
  0.4204426827549964  0.5367565579107207  0.4778183405355356   T   T   T
  0.3444852288891678  0.4665159768837249  0.4976209708298209   T   T   T
  0.6241766103667832  0.4661466622366144  0.4847976087907521   T   T   T
  0.3758280161553900  0.4661778285356337  0.5152202761992873   T   T   T
  0.5160457439907887  0.5583972584563047  0.5194496637261355   T   T   T
  0.4839644002602292  0.5583826009042512  0.4804835612599866   T   T   T
  0.5830031099179744  0.5567857660707086  0.5400503122171206   T   T   T
  0.6290895949375278  0.5181616901967618  0.5285570113414263   T   T   T
  0.6513020385213416  0.4638576708008172  0.5292345924595349   T   T   T
  0.6691840613223980  0.4894800319013367  0.4970604217619842   T   T   T
  0.6692223519300535  0.4450761745705425  0.4929608956261360   T   T   T
  0.5674736953406418  0.4653982123999237  0.4577036607019056   T   T   T
  0.5206403789210989  0.5038431141546159  0.4697433469317924   T   T   T
  0.4169788378769933  0.5568176405889282  0.4599518174179030   T   T   T
  0.3708888303353436  0.5182047794594915  0.4714804700591710   T   T   T
  0.3486833008276282  0.4638842854507018  0.4707929030256924   T   T   T
  0.3307796609764863  0.4450993054393652  0.5070707258348663   T   T   T
  0.3308099608175074  0.4895017692414403  0.5029730062563338   T   T   T
  0.4325420733823265  0.4654257277451804  0.5422941333898469   T   T   T
  0.4793812540169469  0.5038492793140757  0.5302069358425968   T   T   T
 
  0.00000000E+00  0.00000000E+00  0.00000000E+00
  0.00000000E+00  0.00000000E+00  0.00000000E+00
  0.00000000E+00  0.00000000E+00  0.00000000E+00
  0.00000000E+00  0.00000000E+00  0.00000000E+00
  0.00000000E+00  0.00000000E+00  0.00000000E+00
  0.00000000E+00  0.00000000E+00  0.00000000E+00
  0.00000000E+00  0.00000000E+00  0.00000000E+00
  0.00000000E+00  0.00000000E+00  0.00000000E+00
  0.00000000E+00  0.00000000E+00  0.00000000E+00
  0.00000000E+00  0.00000000E+00  0.00000000E+00
  0.00000000E+00  0.00000000E+00  0.00000000E+00
  0.00000000E+00  0.00000000E+00  0.00000000E+00
  0.00000000E+00  0.00000000E+00  0.00000000E+00
  0.00000000E+00  0.00000000E+00  0.00000000E+00
  0.00000000E+00  0.00000000E+00  0.00000000E+00
  0.00000000E+00  0.00000000E+00  0.00000000E+00
  0.00000000E+00  0.00000000E+00  0.00000000E+00
  0.00000000E+00  0.00000000E+00  0.00000000E+00
  0.00000000E+00  0.00000000E+00  0.00000000E+00
  0.00000000E+00  0.00000000E+00  0.00000000E+00
  0.00000000E+00  0.00000000E+00  0.00000000E+00
  0.00000000E+00  0.00000000E+00  0.00000000E+00
  0.00000000E+00  0.00000000E+00  0.00000000E+00
  0.00000000E+00  0.00000000E+00  0.00000000E+00
  0.00000000E+00  0.00000000E+00  0.00000000E+00
  0.00000000E+00  0.00000000E+00  0.00000000E+00
  0.00000000E+00  0.00000000E+00  0.00000000E+00
  0.00000000E+00  0.00000000E+00  0.00000000E+00
  0.00000000E+00  0.00000000E+00  0.00000000E+00
  0.00000000E+00  0.00000000E+00  0.00000000E+00
  0.00000000E+00  0.00000000E+00  0.00000000E+00
  0.00000000E+00  0.00000000E+00  0.00000000E+00
