!PBE0 aug-cc-pVTZ d3 TightSCF SlowConv RIJCOSX defgrid2

%pal
nprocs 15
end

%scf
MaxIter 1500
end

%maxcore 3500

!CPCM
%cpcm smd true
SMDsolvent "WATER"
surfacetype gepol_ses
rsolv 1.40
end

* xyz -1 2
C          -0.03973046046840      0.10892812040704     -0.07338476870276
C          -1.16098921528207     -0.36942550235928      0.71209175660899
C           1.12950619870235      0.46906063473388      0.70766297682295
H          -2.06041411321376     -0.64988443685068      0.14997121109878
H           1.99092702988929      0.83408061571124      0.13293381113983
C          -1.11212024378879     -0.46999723963456      2.07962395432224
C           1.19382481607047      0.37407440355199      2.07622299159295
H          -1.97201412595405     -0.83453656930806      2.65522434724164
C           0.05609683638602     -0.10970890072807      2.85428687501407
O           0.10372480477544     -0.20102139334893      4.10562446305031
O          -0.07494807117445      0.20434515385365     -1.32351109494325
C           2.41507813745815      0.75326139926788      2.85674776584986
H           2.18096706491750      1.54375255830692      3.59412318045315
H           2.78389777303057     -0.10350094502541      3.45115835416892
H           3.22614155265174      1.10750873042238      2.19600586528230
*
