C N H                                   
   1.00000000000000     
    40.0000000000000000    0.0000000000000000    0.0000000000000000
     0.0000000000000000   40.0000000000000000    0.0000000000000000
     0.0000000000000000    0.0000000000000000   40.0000000000000000
   C    N    H 
     8     2     4
Selective dynamics
Direct
  0.4698136518570223  0.4902313825501444  0.5000008262219385   T   T   T
  0.4697235675755042  0.5254438363728644  0.5000038760146658   T   T   T
  0.5000007249393611  0.5427347142870351  0.5000003643897246   T   T   T
  0.5302768668088177  0.5254421034463883  0.4999931819259443   T   T   T
  0.5301860760289615  0.4902294665485404  0.4999902662398039   T   T   T
  0.4999992895204377  0.4723668239869335  0.4999938731652692   T   T   T
  0.5611366252411507  0.4724001171895656  0.5000021600362309   T   T   T
  0.4388625483745768  0.4724034891924611  0.4999998858164373   T   T   T
  0.5865167598056449  0.4579359249416037  0.5000241463821341   T   T   T
  0.4134813602603439  0.4579391568677789  0.4999965402027794   T   T   T
  0.4999986999361272  0.4451539726232859  0.4999924303890361   T   T   T
  0.5539656332463965  0.5388737925668905  0.4999915462924683   T   T   T
  0.5000009975117496  0.5699714302131096  0.5000030244103338   T   T   T
  0.4460351988939043  0.5388757892133930  0.5000088785132241   T   T   T
 
  0.00000000E+00  0.00000000E+00  0.00000000E+00
  0.00000000E+00  0.00000000E+00  0.00000000E+00
  0.00000000E+00  0.00000000E+00  0.00000000E+00
  0.00000000E+00  0.00000000E+00  0.00000000E+00
  0.00000000E+00  0.00000000E+00  0.00000000E+00
  0.00000000E+00  0.00000000E+00  0.00000000E+00
  0.00000000E+00  0.00000000E+00  0.00000000E+00
  0.00000000E+00  0.00000000E+00  0.00000000E+00
  0.00000000E+00  0.00000000E+00  0.00000000E+00
  0.00000000E+00  0.00000000E+00  0.00000000E+00
  0.00000000E+00  0.00000000E+00  0.00000000E+00
  0.00000000E+00  0.00000000E+00  0.00000000E+00
  0.00000000E+00  0.00000000E+00  0.00000000E+00
  0.00000000E+00  0.00000000E+00  0.00000000E+00
