C N H                                   
   1.00000000000000     
    40.0000000000000000    0.0000000000000000    0.0000000000000000
     0.0000000000000000   40.0000000000000000    0.0000000000000000
     0.0000000000000000    0.0000000000000000   40.0000000000000000
   C    N    H 
     8     2     4
Selective dynamics
Direct
  0.4695523554770773  0.4897384788825869  0.5000021556036135   T   T   T
  0.4695588282416396  0.5260403200062106  0.5000040818510108   T   T   T
  0.5000005176322558  0.5427046227594013  0.4999979174422531   T   T   T
  0.5304420469878057  0.5260381914752656  0.4999944088728154   T   T   T
  0.5304463413842967  0.4897365735796244  0.4999991307451855   T   T   T
  0.4999992394057324  0.4726387262241680  0.5000006890607144   T   T   T
  0.5605817640730384  0.4718427875941713  0.5000052908435324   T   T   T
  0.4394160512525401  0.4718445419326280  0.4999989285665988   T   T   T
  0.5861996478974211  0.4575670058281147  0.5000109266246305   T   T   T
  0.4137993619579728  0.4575699760748170  0.4999951980151562   T   T   T
  0.4999986150591092  0.4455219928944701  0.5000007973172764   T   T   T
  0.5539282061820433  0.5394408470915419  0.4999882106132186   T   T   T
  0.5000017446984053  0.5698745306635407  0.4999962815988334   T   T   T
  0.4460732797506956  0.5394434049934689  0.5000069828451663   T   T   T
 
  0.00000000E+00  0.00000000E+00  0.00000000E+00
  0.00000000E+00  0.00000000E+00  0.00000000E+00
  0.00000000E+00  0.00000000E+00  0.00000000E+00
  0.00000000E+00  0.00000000E+00  0.00000000E+00
  0.00000000E+00  0.00000000E+00  0.00000000E+00
  0.00000000E+00  0.00000000E+00  0.00000000E+00
  0.00000000E+00  0.00000000E+00  0.00000000E+00
  0.00000000E+00  0.00000000E+00  0.00000000E+00
  0.00000000E+00  0.00000000E+00  0.00000000E+00
  0.00000000E+00  0.00000000E+00  0.00000000E+00
  0.00000000E+00  0.00000000E+00  0.00000000E+00
  0.00000000E+00  0.00000000E+00  0.00000000E+00
  0.00000000E+00  0.00000000E+00  0.00000000E+00
  0.00000000E+00  0.00000000E+00  0.00000000E+00
