C O S H                                 
   1.00000000000000     
    40.0000000000000000    0.0000000000000000    0.0000000000000000
     0.0000000000000000   40.0000000000000000    0.0000000000000000
     0.0000000000000000    0.0000000000000000   40.0000000000000000
   C    O    S    H 
     7     1     1     8
Selective dynamics
Direct
  0.5516320559149267  0.5014350095955994  0.4977798664274442   T   T   T
  0.5366417040906309  0.5332008824950949  0.4991801353986066   T   T   T
  0.5020425563483826  0.5362560640782666  0.5010503812035983   T   T   T
  0.4816489561529679  0.5076672384856885  0.5019362652735735   T   T   T
  0.4964271354851054  0.4759002173598856  0.5009943345460222   T   T   T
  0.5312203613238313  0.4729997902721892  0.4987665729565753   T   T   T
  0.4262768488303115  0.4847044134069830  0.5035145062205836   T   T   T
  0.4478791848586854  0.5133835083562384  0.5036233139854351   T   T   T
  0.5955656515846393  0.4957562541378944  0.4955534425755261   T   T   T
  0.5423439729865471  0.4481122566261620  0.4976565977090138   T   T   T
  0.4813327335133570  0.4532636462790895  0.5016921819970068   T   T   T
  0.4007744865183227  0.4946154299171041  0.5043475183262582   T   T   T
  0.4296717254403060  0.4698378753373392  0.4805826715271016   T   T   T
  0.4307263092381857  0.4688089859687939  0.5255566128914830   T   T   T
  0.4903863471181992  0.5608891161982440  0.5019029010456478   T   T   T
  0.5520354810465108  0.5557076929674645  0.4987479096656915   T   T   T
  0.6033924895490600  0.5274626185179886  0.4871127882504513   T   T   T
 
  0.00000000E+00  0.00000000E+00  0.00000000E+00
  0.00000000E+00  0.00000000E+00  0.00000000E+00
  0.00000000E+00  0.00000000E+00  0.00000000E+00
  0.00000000E+00  0.00000000E+00  0.00000000E+00
  0.00000000E+00  0.00000000E+00  0.00000000E+00
  0.00000000E+00  0.00000000E+00  0.00000000E+00
  0.00000000E+00  0.00000000E+00  0.00000000E+00
  0.00000000E+00  0.00000000E+00  0.00000000E+00
  0.00000000E+00  0.00000000E+00  0.00000000E+00
  0.00000000E+00  0.00000000E+00  0.00000000E+00
  0.00000000E+00  0.00000000E+00  0.00000000E+00
  0.00000000E+00  0.00000000E+00  0.00000000E+00
  0.00000000E+00  0.00000000E+00  0.00000000E+00
  0.00000000E+00  0.00000000E+00  0.00000000E+00
  0.00000000E+00  0.00000000E+00  0.00000000E+00
  0.00000000E+00  0.00000000E+00  0.00000000E+00
  0.00000000E+00  0.00000000E+00  0.00000000E+00
