C N H                                   
   1.00000000000000     
    40.0000000000000000    0.0000000000000000    0.0000000000000000
     0.0000000000000000   40.0000000000000000    0.0000000000000000
     0.0000000000000000    0.0000000000000000   40.0000000000000000
   C    N    H 
     6     1    15
Selective dynamics
Direct
  0.4698977272264515  0.4990893006416399  0.5219505164497634   T   T   T
  0.4426848219839214  0.4999965777857803  0.4950398739363009   T   T   T
  0.5155564255515885  0.4769914571876187  0.4874330221941934   T   T   T
  0.5145037383305913  0.4421163665925483  0.5025556721138489   T   T   T
  0.5108970590029002  0.5364934176876489  0.4969218529323823   T   T   T
  0.5475522329609372  0.5465772553501141  0.4992956379258789   T   T   T
  0.5045482944472116  0.5031123129375097  0.5105817999536153   T   T   T
  0.4181231530838321  0.4976730385778491  0.5067771618062908   T   T   T
  0.4452820947377701  0.4794566503387068  0.4772259986796539   T   T   T
  0.4430766068707984  0.5235044021227209  0.4811298748836601   T   T   T
  0.4681967204839793  0.4755500391653142  0.5357566478088922   T   T   T
  0.4652631439749211  0.5190148970380881  0.5401204207330492   T   T   T
  0.4889527356009835  0.4334070607785275  0.5066149670644257   T   T   T
  0.5267321565691094  0.4243241631860282  0.4858369736117528   T   T   T
  0.5276262601865398  0.4417339740125514  0.5265255164788234   T   T   T
  0.5009315437272134  0.4774868921961712  0.4639615867844080   T   T   T
  0.5413150759681199  0.4827456156898284  0.4803914224089588   T   T   T
  0.5636174579938186  0.5306360388143921  0.4840326322596738   T   T   T
  0.5560906171497941  0.5450479124216471  0.5252020487330157   T   T   T
  0.5508693111560607  0.5722769030275521  0.4906297874292924   T   T   T
  0.5024170666770186  0.5385251761652228  0.4706945128181665   T   T   T
  0.4958667563164142  0.5542415482825381  0.5113220729939466   T   T   T
 
  0.00000000E+00  0.00000000E+00  0.00000000E+00
  0.00000000E+00  0.00000000E+00  0.00000000E+00
  0.00000000E+00  0.00000000E+00  0.00000000E+00
  0.00000000E+00  0.00000000E+00  0.00000000E+00
  0.00000000E+00  0.00000000E+00  0.00000000E+00
  0.00000000E+00  0.00000000E+00  0.00000000E+00
  0.00000000E+00  0.00000000E+00  0.00000000E+00
  0.00000000E+00  0.00000000E+00  0.00000000E+00
  0.00000000E+00  0.00000000E+00  0.00000000E+00
  0.00000000E+00  0.00000000E+00  0.00000000E+00
  0.00000000E+00  0.00000000E+00  0.00000000E+00
  0.00000000E+00  0.00000000E+00  0.00000000E+00
  0.00000000E+00  0.00000000E+00  0.00000000E+00
  0.00000000E+00  0.00000000E+00  0.00000000E+00
  0.00000000E+00  0.00000000E+00  0.00000000E+00
  0.00000000E+00  0.00000000E+00  0.00000000E+00
  0.00000000E+00  0.00000000E+00  0.00000000E+00
  0.00000000E+00  0.00000000E+00  0.00000000E+00
  0.00000000E+00  0.00000000E+00  0.00000000E+00
  0.00000000E+00  0.00000000E+00  0.00000000E+00
  0.00000000E+00  0.00000000E+00  0.00000000E+00
  0.00000000E+00  0.00000000E+00  0.00000000E+00
