C N H                                   
   1.00000000000000     
    40.0000000000000000    0.0000000000000000    0.0000000000000000
     0.0000000000000000   40.0000000000000000    0.0000000000000000
     0.0000000000000000    0.0000000000000000   40.0000000000000000
   C    N    H 
     8     2     4
Selective dynamics
Direct
  0.4696021477196825  0.4897301739581416  0.5000016590363343   T   T   T
  0.4695462167278049  0.5260535346480232  0.5000035517991075   T   T   T
  0.5000002983227674  0.5427575679899957  0.4999996991982273   T   T   T
  0.5304532214485180  0.5260519535738418  0.4999945427522295   T   T   T
  0.5303970684759375  0.4897291075772904  0.4999989750977532   T   T   T
  0.4999996269554292  0.4725084518415982  0.5000011925725232   T   T   T
  0.5605008974438529  0.4718643468090740  0.5000044034701422   T   T   T
  0.4394964696054895  0.4718648863820581  0.4999987238632262   T   T   T
  0.5861673965778730  0.4576325757859959  0.5000119214457441   T   T   T
  0.4138315721830355  0.4576357207975030  0.4999948669757043   T   T   T
  0.4999989268591642  0.4453830372071089  0.5000005141186854   T   T   T
  0.5539657316660127  0.5394327036482597  0.4999876128061750   T   T   T
  0.5000025837426050  0.5699216735209062  0.4999959326214224   T   T   T
  0.4460358422718677  0.5394362662602126  0.5000074042427232   T   T   T
 
  0.00000000E+00  0.00000000E+00  0.00000000E+00
  0.00000000E+00  0.00000000E+00  0.00000000E+00
  0.00000000E+00  0.00000000E+00  0.00000000E+00
  0.00000000E+00  0.00000000E+00  0.00000000E+00
  0.00000000E+00  0.00000000E+00  0.00000000E+00
  0.00000000E+00  0.00000000E+00  0.00000000E+00
  0.00000000E+00  0.00000000E+00  0.00000000E+00
  0.00000000E+00  0.00000000E+00  0.00000000E+00
  0.00000000E+00  0.00000000E+00  0.00000000E+00
  0.00000000E+00  0.00000000E+00  0.00000000E+00
  0.00000000E+00  0.00000000E+00  0.00000000E+00
  0.00000000E+00  0.00000000E+00  0.00000000E+00
  0.00000000E+00  0.00000000E+00  0.00000000E+00
  0.00000000E+00  0.00000000E+00  0.00000000E+00
