C O H                                   
   1.00000000000000     
    40.0000000000000000    0.0000000000000000    0.0000000000000000
     0.0000000000000000   40.0000000000000000    0.0000000000000000
     0.0000000000000000    0.0000000000000000   40.0000000000000000
   C    O    H 
     8     1     6
Selective dynamics
Direct
  0.5174758822865723  0.4610734599430201  0.5000000000000000   T   T   T
  0.5478843085121576  0.4779653688654759  0.5000000000000000   T   T   T
  0.5492857727637132  0.5129968271456352  0.5000000000000000   T   T   T
  0.5204265068050891  0.5322695089455183  0.5000000000000000   T   T   T
  0.4895255197110723  0.5158947165978716  0.5000000000000000   T   T   T
  0.4890635053794863  0.4807761925155571  0.5000000000000000   T   T   T
  0.4368149618595131  0.4975200682872643  0.5000000000000000   T   T   T
  0.4550221143769850  0.5260178093318756  0.5000000000000000   T   T   T
  0.4566915882598738  0.4694074116616836  0.5000000000000000   T   T   T
  0.4451469072456587  0.5510982863383760  0.5000000000000000   T   T   T
  0.4103328940522354  0.4926702607666742  0.5000009999999975   T   T   T
  0.5218322546787476  0.5593321179954406  0.5000000000000000   T   T   T
  0.5734802995725775  0.5252008498956869  0.5000000000000000   T   T   T
  0.5709475278305554  0.4637365246683875  0.5000000000000000   T   T   T
  0.5160689566657585  0.4340395970415355  0.5000000000000000   T   T   T
 
  0.00000000E+00  0.00000000E+00  0.00000000E+00
  0.00000000E+00  0.00000000E+00  0.00000000E+00
  0.00000000E+00  0.00000000E+00  0.00000000E+00
  0.00000000E+00  0.00000000E+00  0.00000000E+00
  0.00000000E+00  0.00000000E+00  0.00000000E+00
  0.00000000E+00  0.00000000E+00  0.00000000E+00
  0.00000000E+00  0.00000000E+00  0.00000000E+00
  0.00000000E+00  0.00000000E+00  0.00000000E+00
  0.00000000E+00  0.00000000E+00  0.00000000E+00
  0.00000000E+00  0.00000000E+00  0.00000000E+00
  0.00000000E+00  0.00000000E+00  0.00000000E+00
  0.00000000E+00  0.00000000E+00  0.00000000E+00
  0.00000000E+00  0.00000000E+00  0.00000000E+00
  0.00000000E+00  0.00000000E+00  0.00000000E+00
  0.00000000E+00  0.00000000E+00  0.00000000E+00
