C H                                     
   1.00000000000000     
    40.0000000000000000    0.0000000000000000    0.0000000000000000
     0.0000000000000000   40.0000000000000000    0.0000000000000000
     0.0000000000000000    0.0000000000000000   40.0000000000000000
   C    H 
     7     8
Selective dynamics
Direct
  0.5515422871715008  0.4999943769792121  0.5001374507630095   T   T   T
  0.5340643587492391  0.4691284045377055  0.4999887328950697   T   T   T
  0.4999402279116193  0.4690548476351363  0.4997473748086422   T   T   T
  0.4818391273535060  0.5000079462441412  0.4994085981798800   T   T   T
  0.4451811560098660  0.5000083415068152  0.4993425000872806   T   T   T
  0.4999469961146413  0.5309523169777060  0.4997524069465660   T   T   T
  0.5340707780106487  0.5308669773995316  0.4999927909291658   T   T   T
  0.4349281603024289  0.5226283057413268  0.4881527411839506   T   T   T
  0.4349354885360031  0.4774467058229075  0.4880231749114839   T   T   T
  0.4369189778242238  0.4999182968323327  0.5256932483605337   T   T   T
  0.5480235036653558  0.5540349324965164  0.5000378550870843   T   T   T
  0.4860056979483429  0.5541595384810076  0.4996285227720578   T   T   T
  0.4859932225057392  0.4458507687889153  0.4996227117196436   T   T   T
  0.5480112087649466  0.4459566980361221  0.5000301514942028   T   T   T
  0.5786008091319261  0.4999925425206782  0.5004397398614063   T   T   T
 
  0.00000000E+00  0.00000000E+00  0.00000000E+00
  0.00000000E+00  0.00000000E+00  0.00000000E+00
  0.00000000E+00  0.00000000E+00  0.00000000E+00
  0.00000000E+00  0.00000000E+00  0.00000000E+00
  0.00000000E+00  0.00000000E+00  0.00000000E+00
  0.00000000E+00  0.00000000E+00  0.00000000E+00
  0.00000000E+00  0.00000000E+00  0.00000000E+00
  0.00000000E+00  0.00000000E+00  0.00000000E+00
  0.00000000E+00  0.00000000E+00  0.00000000E+00
  0.00000000E+00  0.00000000E+00  0.00000000E+00
  0.00000000E+00  0.00000000E+00  0.00000000E+00
  0.00000000E+00  0.00000000E+00  0.00000000E+00
  0.00000000E+00  0.00000000E+00  0.00000000E+00
  0.00000000E+00  0.00000000E+00  0.00000000E+00
  0.00000000E+00  0.00000000E+00  0.00000000E+00
