C O H                                   
   1.00000000000000     
    40.0000000000000000    0.0000000000000000    0.0000000000000000
     0.0000000000000000   40.0000000000000000    0.0000000000000000
     0.0000000000000000    0.0000000000000000   40.0000000000000000
   C    O    H 
     9     1     8
Selective dynamics
Direct
  0.4884036289723358  0.4768610981089159  0.4999874045531375   T   T   T
  0.4737647555900950  0.5093677651478907  0.4999950587465811   T   T   T
  0.4941188078902519  0.5387823105619124  0.4999971503204282   T   T   T
  0.5282169130924955  0.5357679456247528  0.4999937799596058   T   T   T
  0.5432615956267304  0.5033105989051223  0.4999910984986672   T   T   T
  0.5225852772439189  0.4740599417268029  0.4999865113178701   T   T   T
  0.5780282886794733  0.5000590349017093  0.5000010537680148   T   T   T
  0.6084901589747174  0.4972826315323468  0.5000155670064377   T   T   T
  0.4176935827732147  0.4870636761486813  0.5000082415908094   T   T   T
  0.4411883783204427  0.5149152320768982  0.5000025020840707   T   T   T
  0.5344051431821034  0.4495408807274122  0.4999849058083697   T   T   T
  0.6352483817584207  0.4948125588885342  0.5000279556740157   T   T   T
  0.5441658579329005  0.5578178493009097  0.4999940500890960   T   T   T
  0.4818330428369972  0.5630792122903615  0.5000002553637166   T   T   T
  0.3930449062130599  0.4987498719897084  0.5000149586179229   T   T   T
  0.4213402471743942  0.4719825842828939  0.4774098640917986   T   T   T
  0.4213531369872824  0.4719805089970345  0.5226022460970879   T   T   T
  0.4728568967511754  0.4545662987880910  0.4999873964123489   T   T   T
 
  0.00000000E+00  0.00000000E+00  0.00000000E+00
  0.00000000E+00  0.00000000E+00  0.00000000E+00
  0.00000000E+00  0.00000000E+00  0.00000000E+00
  0.00000000E+00  0.00000000E+00  0.00000000E+00
  0.00000000E+00  0.00000000E+00  0.00000000E+00
  0.00000000E+00  0.00000000E+00  0.00000000E+00
  0.00000000E+00  0.00000000E+00  0.00000000E+00
  0.00000000E+00  0.00000000E+00  0.00000000E+00
  0.00000000E+00  0.00000000E+00  0.00000000E+00
  0.00000000E+00  0.00000000E+00  0.00000000E+00
  0.00000000E+00  0.00000000E+00  0.00000000E+00
  0.00000000E+00  0.00000000E+00  0.00000000E+00
  0.00000000E+00  0.00000000E+00  0.00000000E+00
  0.00000000E+00  0.00000000E+00  0.00000000E+00
  0.00000000E+00  0.00000000E+00  0.00000000E+00
  0.00000000E+00  0.00000000E+00  0.00000000E+00
  0.00000000E+00  0.00000000E+00  0.00000000E+00
  0.00000000E+00  0.00000000E+00  0.00000000E+00
