C N H                                   
   1.00000000000000     
    40.0000000000000000    0.0000000000000000    0.0000000000000000
     0.0000000000000000   40.0000000000000000    0.0000000000000000
     0.0000000000000000    0.0000000000000000   40.0000000000000000
   C    N    H 
     8     2     4
Selective dynamics
Direct
  0.4693570854785469  0.4897046451853155  0.5000026959201896   T   T   T
  0.4693791316036348  0.5261086079712654  0.5000065443100048   T   T   T
  0.5000000285396049  0.5427866084204136  0.4999954561115860   T   T   T
  0.5306184564470829  0.5261028741347324  0.4999932499099089   T   T   T
  0.5306411592240668  0.4897035068734546  0.5000008252724165   T   T   T
  0.5000023121666158  0.4725762820050298  0.5000049160727570   T   T   T
  0.5608911211549200  0.4716942343294087  0.5000043962976575   T   T   T
  0.4391070800126460  0.4716941251739121  0.4999976562303891   T   T   T
  0.5867409223660125  0.4574295765128202  0.5000104983131934   T   T   T
  0.4132578683951891  0.4574350795064182  0.4999965785339817   T   T   T
  0.4999991081243431  0.4452836799769377  0.4999938768109934   T   T   T
  0.5542134673469989  0.5396836383173178  0.4999855954066673   T   T   T
  0.5000010295068562  0.5701145653726329  0.4999989120282776   T   T   T
  0.4457892296335084  0.5396845762203357  0.5000097987819677   T   T   T
 
  0.00000000E+00  0.00000000E+00  0.00000000E+00
  0.00000000E+00  0.00000000E+00  0.00000000E+00
  0.00000000E+00  0.00000000E+00  0.00000000E+00
  0.00000000E+00  0.00000000E+00  0.00000000E+00
  0.00000000E+00  0.00000000E+00  0.00000000E+00
  0.00000000E+00  0.00000000E+00  0.00000000E+00
  0.00000000E+00  0.00000000E+00  0.00000000E+00
  0.00000000E+00  0.00000000E+00  0.00000000E+00
  0.00000000E+00  0.00000000E+00  0.00000000E+00
  0.00000000E+00  0.00000000E+00  0.00000000E+00
  0.00000000E+00  0.00000000E+00  0.00000000E+00
  0.00000000E+00  0.00000000E+00  0.00000000E+00
  0.00000000E+00  0.00000000E+00  0.00000000E+00
  0.00000000E+00  0.00000000E+00  0.00000000E+00
