C N O H                                 
   1.00000000000000     
    40.0000000000000000    0.0000000000000000    0.0000000000000000
     0.0000000000000000   40.0000000000000000    0.0000000000000000
     0.0000000000000000    0.0000000000000000   40.0000000000000000
   C    N    O    H 
     7     1     1     7
Selective dynamics
Direct
  0.5161060733234515  0.4675713368887220  0.5000000000000000   T   T   T
  0.5499536878750332  0.4740348323027501  0.5000000000000000   T   T   T
  0.5613281630631097  0.5074796625469722  0.5000000000000000   T   T   T
  0.5386775543269200  0.5345366353013147  0.5000000000000000   T   T   T
  0.5047605747705755  0.5285305434482944  0.5000000000000000   T   T   T
  0.4928361856107877  0.4946732587194633  0.5000000000000000   T   T   T
  0.4582293334170488  0.4868613373712525  0.5000000000000000   T   T   T
  0.4359390818474093  0.5114638523793416  0.5000000000000000   T   T   T
  0.4047893516501500  0.4987417276278158  0.5000009999999975   T   T   T
  0.3898772525929310  0.5183007477159888  0.5000009999999975   T   T   T
  0.4498038150590200  0.4607750721455767  0.5000000000000000   T   T   T
  0.4867793883128263  0.5489697585357790  0.5000000000000000   T   T   T
  0.5481390278589668  0.5600570448334240  0.5000000000000000   T   T   T
  0.5881315434617053  0.5124435852737187  0.4999990000000025   T   T   T
  0.5679042797722934  0.4535826325234958  0.4999990000000025   T   T   T
  0.5067456870577769  0.4419779723860908  0.5000000000000000   T   T   T
 
  0.00000000E+00  0.00000000E+00  0.00000000E+00
  0.00000000E+00  0.00000000E+00  0.00000000E+00
  0.00000000E+00  0.00000000E+00  0.00000000E+00
  0.00000000E+00  0.00000000E+00  0.00000000E+00
  0.00000000E+00  0.00000000E+00  0.00000000E+00
  0.00000000E+00  0.00000000E+00  0.00000000E+00
  0.00000000E+00  0.00000000E+00  0.00000000E+00
  0.00000000E+00  0.00000000E+00  0.00000000E+00
  0.00000000E+00  0.00000000E+00  0.00000000E+00
  0.00000000E+00  0.00000000E+00  0.00000000E+00
  0.00000000E+00  0.00000000E+00  0.00000000E+00
  0.00000000E+00  0.00000000E+00  0.00000000E+00
  0.00000000E+00  0.00000000E+00  0.00000000E+00
  0.00000000E+00  0.00000000E+00  0.00000000E+00
  0.00000000E+00  0.00000000E+00  0.00000000E+00
  0.00000000E+00  0.00000000E+00  0.00000000E+00
