C N O H                                 
   1.00000000000000     
    40.0000000000000000    0.0000000000000000    0.0000000000000000
     0.0000000000000000   40.0000000000000000    0.0000000000000000
     0.0000000000000000    0.0000000000000000   40.0000000000000000
   C    N    O    H 
    10     1     1    13
Selective dynamics
Direct
  0.4661732916544743  0.5306788933926384  0.5029901578573082   T   T   T
  0.4328651831525875  0.5332780841651857  0.4939139723280373   T   T   T
  0.4129656665755763  0.5045630117133348  0.4903962896465153   T   T   T
  0.4268204810109709  0.4728659283191092  0.4963804251898831   T   T   T
  0.4601528630970446  0.4696234309054133  0.5051272410395020   T   T   T
  0.4806879542635786  0.4985769172779010  0.5081863580310039   T   T   T
  0.5332429482769552  0.4654732288411322  0.5080103095544257   T   T   T
  0.5563483788754046  0.4743486735198871  0.4780463024938129   T   T   T
  0.5591726804786544  0.5306680328321783  0.4948369885072060   T   T   T
  0.5356467054450866  0.5231783146648458  0.5247090875325777   T   T   T
  0.5140122522628185  0.4953032613284504  0.5159897351590533   T   T   T
  0.5777311465729824  0.5014722418893250  0.4864475758594753   T   T   T
  0.5486057354839760  0.4585712173426810  0.5296690652457070   T   T   T
  0.5172083013885407  0.4445940824065457  0.5008129019654823   T   T   T
  0.5407146824509167  0.4804901878875308  0.4561566621143900   T   T   T
  0.5722690696403256  0.4527781246273374  0.4724500874892693   T   T   T
  0.5771747865462791  0.5499862598666191  0.5021126731130678   T   T   T
  0.5442468423614547  0.5393161301528786  0.4733033772256113   T   T   T
  0.5213803410237386  0.5453384022815870  0.5317651414295727   T   T   T
  0.5509962189875522  0.5153289659669403  0.5460951177913019   T   T   T
  0.4700822835251254  0.4449625094858373  0.5108453382107182   T   T   T
  0.4112779910159117  0.4505703689803013  0.4944721528608070   T   T   T
  0.3867686696957232  0.5068865698992510  0.4832772427454557   T   T   T
  0.4222348901465854  0.5579057061007993  0.4891775194668985   T   T   T
  0.4812176360677315  0.5532424561522870  0.5048292771429224   T   T   T
 
  0.00000000E+00  0.00000000E+00  0.00000000E+00
  0.00000000E+00  0.00000000E+00  0.00000000E+00
  0.00000000E+00  0.00000000E+00  0.00000000E+00
  0.00000000E+00  0.00000000E+00  0.00000000E+00
  0.00000000E+00  0.00000000E+00  0.00000000E+00
  0.00000000E+00  0.00000000E+00  0.00000000E+00
  0.00000000E+00  0.00000000E+00  0.00000000E+00
  0.00000000E+00  0.00000000E+00  0.00000000E+00
  0.00000000E+00  0.00000000E+00  0.00000000E+00
  0.00000000E+00  0.00000000E+00  0.00000000E+00
  0.00000000E+00  0.00000000E+00  0.00000000E+00
  0.00000000E+00  0.00000000E+00  0.00000000E+00
  0.00000000E+00  0.00000000E+00  0.00000000E+00
  0.00000000E+00  0.00000000E+00  0.00000000E+00
  0.00000000E+00  0.00000000E+00  0.00000000E+00
  0.00000000E+00  0.00000000E+00  0.00000000E+00
  0.00000000E+00  0.00000000E+00  0.00000000E+00
  0.00000000E+00  0.00000000E+00  0.00000000E+00
  0.00000000E+00  0.00000000E+00  0.00000000E+00
  0.00000000E+00  0.00000000E+00  0.00000000E+00
  0.00000000E+00  0.00000000E+00  0.00000000E+00
  0.00000000E+00  0.00000000E+00  0.00000000E+00
  0.00000000E+00  0.00000000E+00  0.00000000E+00
  0.00000000E+00  0.00000000E+00  0.00000000E+00
  0.00000000E+00  0.00000000E+00  0.00000000E+00
