C O H                                   
   1.00000000000000     
    25.0000000000000000    0.0000000000000000    0.0000000000000000
     0.0000000000000000   25.0000000000000000    0.0000000000000000
     0.0000000000000000    0.0000000000000000   25.0000000000000000
   C    O    H 
     6     2     4
Selective dynamics
Direct
  0.5000000000000000  0.5000000000000000  0.4426339144989135   T   T   T
  0.4514756485667719  0.4851367956589630  0.4730339528822113   T   T   T
  0.5485243514332282  0.5148632043410367  0.4730339528822113   T   T   T
  0.4514756485667719  0.4851367956589630  0.5269660471177887   T   T   T
  0.5485243514332282  0.5148632043410367  0.5269660471177887   T   T   T
  0.5000000000000000  0.5000000000000000  0.5573660855010865   T   T   T
  0.5000000000000000  0.5000000000000000  0.6070938936526421   T   T   T
  0.5000000000000000  0.5000000000000000  0.3929061063473581   T   T   T
  0.4162853097680340  0.4743191343511486  0.4495830509705142   T   T   T
  0.5837146902319663  0.5256808656488513  0.4495830509705142   T   T   T
  0.4162853097680340  0.4743191343511486  0.5504169490294856   T   T   T
  0.5837146902319663  0.5256808656488513  0.5504169490294856   T   T   T
 
  0.00000000E+00  0.00000000E+00  0.00000000E+00
  0.00000000E+00  0.00000000E+00  0.00000000E+00
  0.00000000E+00  0.00000000E+00  0.00000000E+00
  0.00000000E+00  0.00000000E+00  0.00000000E+00
  0.00000000E+00  0.00000000E+00  0.00000000E+00
  0.00000000E+00  0.00000000E+00  0.00000000E+00
  0.00000000E+00  0.00000000E+00  0.00000000E+00
  0.00000000E+00  0.00000000E+00  0.00000000E+00
  0.00000000E+00  0.00000000E+00  0.00000000E+00
  0.00000000E+00  0.00000000E+00  0.00000000E+00
  0.00000000E+00  0.00000000E+00  0.00000000E+00
  0.00000000E+00  0.00000000E+00  0.00000000E+00
