C H                                     
   1.00000000000000     
    40.0000000000000000    0.0000000000000000    0.0000000000000000
     0.0000000000000000   40.0000000000000000    0.0000000000000000
     0.0000000000000000    0.0000000000000000   40.0000000000000000
   C    H 
     9    12
Selective dynamics
Direct
  0.4736548380063543  0.4774716302802834  0.4999632460339133   T   T   T
  0.5063020948526153  0.4654175064888417  0.4999480060385288   T   T   T
  0.5134477596981448  0.4285114739743703  0.5000110406598044   T   T   T
  0.5326776327560024  0.4884596195590233  0.4999397964462123   T   T   T
  0.5267935100839675  0.5227613813415464  0.4999228755780388   T   T   T
  0.5552082169970566  0.5473721561517819  0.5000138892809096   T   T   T
  0.4936519008241654  0.5340880723319089  0.4999094665137515   T   T   T
  0.4668876392781922  0.5118373640455960  0.4999592538714500   T   T   T
  0.4313506606616958  0.5241107582799630  0.5000269676717525   T   T   T
  0.4904101100169548  0.4139504558564887  0.4990759907975753   T   T   T
  0.5272154317552472  0.4212316391604917  0.5224993190853642   T   T   T
  0.5289182046493334  0.4214583939045553  0.4785931519836286   T   T   T
  0.5793111343240138  0.5347063009819069  0.4985348553892092   T   T   T
  0.5532917517310455  0.5646852787169627  0.4789353381648626   T   T   T
  0.5549443685343203  0.5625341211741871  0.5227834759817144   T   T   T
  0.4174937237921803  0.5141825625406415  0.4786447904353701   T   T   T
  0.4302624403166069  0.5513397899165469  0.4990405621736476   T   T   T
  0.4181963894703390  0.5158563898624106  0.5225467703740111   T   T   T
  0.4887455331049470  0.5608172691483231  0.4998430390559852   T   T   T
  0.5582818567455277  0.4793485792055129  0.4998712683444467   T   T   T
  0.4529548024012751  0.4598592570786366  0.4999368961198171   T   T   T
 
  0.00000000E+00  0.00000000E+00  0.00000000E+00
  0.00000000E+00  0.00000000E+00  0.00000000E+00
  0.00000000E+00  0.00000000E+00  0.00000000E+00
  0.00000000E+00  0.00000000E+00  0.00000000E+00
  0.00000000E+00  0.00000000E+00  0.00000000E+00
  0.00000000E+00  0.00000000E+00  0.00000000E+00
  0.00000000E+00  0.00000000E+00  0.00000000E+00
  0.00000000E+00  0.00000000E+00  0.00000000E+00
  0.00000000E+00  0.00000000E+00  0.00000000E+00
  0.00000000E+00  0.00000000E+00  0.00000000E+00
  0.00000000E+00  0.00000000E+00  0.00000000E+00
  0.00000000E+00  0.00000000E+00  0.00000000E+00
  0.00000000E+00  0.00000000E+00  0.00000000E+00
  0.00000000E+00  0.00000000E+00  0.00000000E+00
  0.00000000E+00  0.00000000E+00  0.00000000E+00
  0.00000000E+00  0.00000000E+00  0.00000000E+00
  0.00000000E+00  0.00000000E+00  0.00000000E+00
  0.00000000E+00  0.00000000E+00  0.00000000E+00
  0.00000000E+00  0.00000000E+00  0.00000000E+00
  0.00000000E+00  0.00000000E+00  0.00000000E+00
  0.00000000E+00  0.00000000E+00  0.00000000E+00
