C F N O H                               
   1.00000000000000     
    40.0000000000000000    0.0000000000000000    0.0000000000000000
     0.0000000000000000   40.0000000000000000    0.0000000000000000
     0.0000000000000000    0.0000000000000000   40.0000000000000000
   C    F    N    O    H 
     6     1     1     2     4
Selective dynamics
Direct
  0.4701632989112072  0.4693724478732019  0.4999966088222227   T   T   T
  0.5049378800713397  0.4694287372658772  0.4999971827939458   T   T   T
  0.5218636538486534  0.4999998281005008  0.5000005304484452   T   T   T
  0.5049382530828858  0.5305706891039318  0.5000033535553089   T   T   T
  0.4701636984140130  0.5306276979559801  0.5000030905945665   T   T   T
  0.4535622914485183  0.5000000509236345  0.4999996677057355   T   T   T
  0.4195918623733609  0.5000002766784053  0.4999991775885937   T   T   T
  0.5585869838347830  0.4999991429050263  0.4999999381776670   T   T   T
  0.5731356898340321  0.4725344714681711  0.4999986786858425   T   T   T
  0.5731361207808000  0.5274649098387844  0.5000005386901588   T   T   T
  0.4559369319780730  0.5538375159371067  0.5000038695611563   T   T   T
  0.5190238119546242  0.5538299396662296  0.5000054247764425   T   T   T
  0.5190232706187526  0.4461696201711487  0.4999957074658593   T   T   T
  0.4559362528489420  0.4461626721119922  0.4999952311340435   T   T   T
 
  0.00000000E+00  0.00000000E+00  0.00000000E+00
  0.00000000E+00  0.00000000E+00  0.00000000E+00
  0.00000000E+00  0.00000000E+00  0.00000000E+00
  0.00000000E+00  0.00000000E+00  0.00000000E+00
  0.00000000E+00  0.00000000E+00  0.00000000E+00
  0.00000000E+00  0.00000000E+00  0.00000000E+00
  0.00000000E+00  0.00000000E+00  0.00000000E+00
  0.00000000E+00  0.00000000E+00  0.00000000E+00
  0.00000000E+00  0.00000000E+00  0.00000000E+00
  0.00000000E+00  0.00000000E+00  0.00000000E+00
  0.00000000E+00  0.00000000E+00  0.00000000E+00
  0.00000000E+00  0.00000000E+00  0.00000000E+00
  0.00000000E+00  0.00000000E+00  0.00000000E+00
  0.00000000E+00  0.00000000E+00  0.00000000E+00
