C N H                                   
   1.00000000000000     
    40.0000000000000000    0.0000000000000000    0.0000000000000000
     0.0000000000000000   40.0000000000000000    0.0000000000000000
     0.0000000000000000    0.0000000000000000   40.0000000000000000
   C    N    H 
     8     2     4
Selective dynamics
Direct
  0.4699882091255897  0.4902779967720782  0.4999988296017335   T   T   T
  0.4698706400523354  0.5253303645246602  0.5000035855413434   T   T   T
  0.5000010030969056  0.5425496514612582  0.4999993259479973   T   T   T
  0.5301302996947406  0.5253289505717377  0.4999927952396334   T   T   T
  0.5300106876662048  0.4902765488348219  0.4999929490765787   T   T   T
  0.4999995553579465  0.4724542984561752  0.4999951326186295   T   T   T
  0.5608604239882463  0.4725148361299739  0.5000041088255410   T   T   T
  0.4391379561544081  0.4725186725997044  0.4999990721934469   T   T   T
  0.5860910019687147  0.4581709863953028  0.5000208029822329   T   T   T
  0.4139068478645715  0.4581745686856627  0.4999977743645557   T   T   T
  0.4999984084002020  0.4454229544150703  0.4999926149254004   T   T   T
  0.5536627221637443  0.5386897239626617  0.4999917141546332   T   T   T
  0.5000015768517798  0.5696000816726382  0.5000027592742017   T   T   T
  0.4463386676146153  0.5386923655182428  0.5000095352540556   T   T   T
 
  0.00000000E+00  0.00000000E+00  0.00000000E+00
  0.00000000E+00  0.00000000E+00  0.00000000E+00
  0.00000000E+00  0.00000000E+00  0.00000000E+00
  0.00000000E+00  0.00000000E+00  0.00000000E+00
  0.00000000E+00  0.00000000E+00  0.00000000E+00
  0.00000000E+00  0.00000000E+00  0.00000000E+00
  0.00000000E+00  0.00000000E+00  0.00000000E+00
  0.00000000E+00  0.00000000E+00  0.00000000E+00
  0.00000000E+00  0.00000000E+00  0.00000000E+00
  0.00000000E+00  0.00000000E+00  0.00000000E+00
  0.00000000E+00  0.00000000E+00  0.00000000E+00
  0.00000000E+00  0.00000000E+00  0.00000000E+00
  0.00000000E+00  0.00000000E+00  0.00000000E+00
  0.00000000E+00  0.00000000E+00  0.00000000E+00
