C O H                                   
   1.00000000000000     
    40.0000000000000000    0.0000000000000000    0.0000000000000000
     0.0000000000000000   40.0000000000000000    0.0000000000000000
     0.0000000000000000    0.0000000000000000   40.0000000000000000
   C    O    H 
     8     1     6
Selective dynamics
Direct
  0.5168824602891112  0.4607147782234441  0.5000000000000000   T   T   T
  0.5478227063397136  0.4782977735220866  0.5000000000000000   T   T   T
  0.5495756952457416  0.5134597582504671  0.5000000000000000   T   T   T
  0.5207725429575697  0.5327735961770519  0.5000000000000000   T   T   T
  0.4893969192934137  0.5158619272583879  0.5000000000000000   T   T   T
  0.4889572610084391  0.4803595839667307  0.5000000000000000   T   T   T
  0.4367348424272412  0.4965594297476749  0.5000000000000000   T   T   T
  0.4558782955025480  0.5261650326795406  0.5000000000000000   T   T   T
  0.4558328517362099  0.4691268800960216  0.5000000000000000   T   T   T
  0.4457698606982832  0.5513125280973685  0.5000000000000000   T   T   T
  0.4099059652454654  0.4925640346645407  0.5000009999999975   T   T   T
  0.5217710150286620  0.5599529591022824  0.5000000000000000   T   T   T
  0.5739745781488256  0.5254694564466907  0.5000000000000000   T   T   T
  0.5708655074913158  0.4638233278059711  0.5000000000000000   T   T   T
  0.5158584985874551  0.4335579339617434  0.5000000000000000   T   T   T
 
  0.00000000E+00  0.00000000E+00  0.00000000E+00
  0.00000000E+00  0.00000000E+00  0.00000000E+00
  0.00000000E+00  0.00000000E+00  0.00000000E+00
  0.00000000E+00  0.00000000E+00  0.00000000E+00
  0.00000000E+00  0.00000000E+00  0.00000000E+00
  0.00000000E+00  0.00000000E+00  0.00000000E+00
  0.00000000E+00  0.00000000E+00  0.00000000E+00
  0.00000000E+00  0.00000000E+00  0.00000000E+00
  0.00000000E+00  0.00000000E+00  0.00000000E+00
  0.00000000E+00  0.00000000E+00  0.00000000E+00
  0.00000000E+00  0.00000000E+00  0.00000000E+00
  0.00000000E+00  0.00000000E+00  0.00000000E+00
  0.00000000E+00  0.00000000E+00  0.00000000E+00
  0.00000000E+00  0.00000000E+00  0.00000000E+00
  0.00000000E+00  0.00000000E+00  0.00000000E+00
