C O H                                   
   1.00000000000000     
    40.0000000000000000    0.0000000000000000    0.0000000000000000
     0.0000000000000000   40.0000000000000000    0.0000000000000000
     0.0000000000000000    0.0000000000000000   40.0000000000000000
   C    O    H 
     4     1     4
Selective dynamics
Direct
  0.4852020188961199  0.4729450223862577  0.5000000000000000   T   T   T
  0.5190637952488135  0.4828019920526609  0.5000000000000000   T   T   T
  0.5190627952488160  0.5171990079473365  0.5000000000000000   T   T   T
  0.4852000188961179  0.5270539776137377  0.5000000000000000   T   T   T
  0.4649868978483712  0.4999990000000025  0.5000000000000000   T   T   T
  0.4730901417753799  0.5511507251396948  0.5000000000000000   T   T   T
  0.5401490951555155  0.5339888869930843  0.4999990000000025   T   T   T
  0.5401510951555104  0.4660141130069151  0.5000000000000000   T   T   T
  0.4730931417753794  0.4488472748603032  0.5000000000000000   T   T   T
 
  0.00000000E+00  0.00000000E+00  0.00000000E+00
  0.00000000E+00  0.00000000E+00  0.00000000E+00
  0.00000000E+00  0.00000000E+00  0.00000000E+00
  0.00000000E+00  0.00000000E+00  0.00000000E+00
  0.00000000E+00  0.00000000E+00  0.00000000E+00
  0.00000000E+00  0.00000000E+00  0.00000000E+00
  0.00000000E+00  0.00000000E+00  0.00000000E+00
  0.00000000E+00  0.00000000E+00  0.00000000E+00
  0.00000000E+00  0.00000000E+00  0.00000000E+00
