C N H                                   
   1.00000000000000     
    40.0000000000000000    0.0000000000000000    0.0000000000000000
     0.0000000000000000   40.0000000000000000    0.0000000000000000
     0.0000000000000000    0.0000000000000000   40.0000000000000000
   C    N    H 
     6     1    15
Selective dynamics
Direct
  0.4470789101343203  0.4702373103872925  0.4923931727783493   T   T   T
  0.4687595791017847  0.5019929631286754  0.4932483804234940   T   T   T
  0.5318912983442766  0.4946799827127023  0.4915367693709086   T   T   T
  0.5435010186723856  0.5315521563874229  0.4899588860707632   T   T   T
  0.5573446164907198  0.4723288539630592  0.5086993846546786   T   T   T
  0.4517386482508465  0.5300899640613478  0.5128713793182740   T   T   T
  0.5002755836103805  0.4938593717235867  0.5088010044884621   T   T   T
  0.5001015695859963  0.4884807454061776  0.5337602504936377   T   T   T
  0.5478671058288410  0.5411759788101348  0.5150830790916608   T   T   T
  0.5252535407267216  0.5472362983027527  0.4771895931734633   T   T   T
  0.5669039226090890  0.5319844173593121  0.4759788585486719   T   T   T
  0.5485812766379602  0.4465443481032239  0.5097804390028857   T   T   T
  0.5805642272481080  0.4730842173386786  0.4944629089754274   T   T   T
  0.5625298089491413  0.4811428160951028  0.5340036811488932   T   T   T
  0.5268570554400445  0.4863630677642741  0.4659639513830560   T   T   T
  0.4671301552076960  0.5525711171405118  0.5132557456408217   T   T   T
  0.4465969593809267  0.5222738938267419  0.5384935641355588   T   T   T
  0.4280644939405429  0.5357504981829427  0.5005950138374378   T   T   T
  0.4743232225175056  0.5099833192025601  0.4677709752358301   T   T   T
  0.4593187352680791  0.4503429176605159  0.4783785695356855   T   T   T
  0.4416931464219718  0.4615896218876653  0.5176863219761012   T   T   T
  0.4236241256326360  0.4767381405553491  0.4800890707159445   T   T   T
 
  0.00000000E+00  0.00000000E+00  0.00000000E+00
  0.00000000E+00  0.00000000E+00  0.00000000E+00
  0.00000000E+00  0.00000000E+00  0.00000000E+00
  0.00000000E+00  0.00000000E+00  0.00000000E+00
  0.00000000E+00  0.00000000E+00  0.00000000E+00
  0.00000000E+00  0.00000000E+00  0.00000000E+00
  0.00000000E+00  0.00000000E+00  0.00000000E+00
  0.00000000E+00  0.00000000E+00  0.00000000E+00
  0.00000000E+00  0.00000000E+00  0.00000000E+00
  0.00000000E+00  0.00000000E+00  0.00000000E+00
  0.00000000E+00  0.00000000E+00  0.00000000E+00
  0.00000000E+00  0.00000000E+00  0.00000000E+00
  0.00000000E+00  0.00000000E+00  0.00000000E+00
  0.00000000E+00  0.00000000E+00  0.00000000E+00
  0.00000000E+00  0.00000000E+00  0.00000000E+00
  0.00000000E+00  0.00000000E+00  0.00000000E+00
  0.00000000E+00  0.00000000E+00  0.00000000E+00
  0.00000000E+00  0.00000000E+00  0.00000000E+00
  0.00000000E+00  0.00000000E+00  0.00000000E+00
  0.00000000E+00  0.00000000E+00  0.00000000E+00
  0.00000000E+00  0.00000000E+00  0.00000000E+00
  0.00000000E+00  0.00000000E+00  0.00000000E+00
