C H                                     
   1.00000000000000     
    40.0000000000000000    0.0000000000000000    0.0000000000000000
     0.0000000000000000   40.0000000000000000    0.0000000000000000
     0.0000000000000000    0.0000000000000000   40.0000000000000000
   C    H 
    12    14
Selective dynamics
Direct
  0.5480311463817805  0.4696077659019925  0.4919701535126837   T   T   T
  0.5829122170956076  0.4700709348476756  0.4923898962975556   T   T   T
  0.6001269186859273  0.4993073376545301  0.5010317730658238   T   T   T
  0.5819402698264693  0.5280325131173813  0.5091162728675461   T   T   T
  0.5470055790868192  0.5275408394599834  0.5086442355814441   T   T   T
  0.5292389675366095  0.4982244255892186  0.5004233281840835   T   T   T
  0.4921696064492361  0.4978966412425352  0.5004827414070274   T   T   T
  0.4747645647208968  0.4697609449057880  0.5073342376404295   T   T   T
  0.4372814216275211  0.4674888790652150  0.5081658990341679   T   T   T
  0.4203597465601274  0.5018652146054274  0.5083222062474525   T   T   T
  0.4375633959170844  0.5252647860328806  0.4834149897381878   T   T   T
  0.4743031574943646  0.5304848384863917  0.4929188704846306   T   T   T
  0.4876521166489682  0.5436970654466521  0.4727515113271967   T   T   T
  0.4758622920914587  0.5471537189859731  0.5149099825219803   T   T   T
  0.4246916691658629  0.5495403541265926  0.4822347328280089   T   T   T
  0.4361700926900565  0.5143031218556494  0.4581424730793865   T   T   T
  0.3935822343369592  0.4993440882905862  0.5026072397434305   T   T   T
  0.4221269229996782  0.5127825941079115  0.5335901307375551   T   T   T
  0.4287866356307503  0.4528472252707254  0.4862673910868672   T   T   T
  0.4294594277143632  0.4526615697985148  0.5300530865979974   T   T   T
  0.4883794710912204  0.4467434211833849  0.5130806771713705   T   T   T
  0.5333831138122677  0.5502423853063659  0.5151683942311990   T   T   T
  0.5949883594280987  0.5510490667893150  0.5158036123084762   T   T   T
  0.6273918670106996  0.4997015763119833  0.5012060405681943   T   T   T
  0.5967579874108017  0.4475749341085458  0.4855478549688069   T   T   T
  0.5350688185863841  0.4468127575087976  0.4844222687685047   T   T   T
 
  0.00000000E+00  0.00000000E+00  0.00000000E+00
  0.00000000E+00  0.00000000E+00  0.00000000E+00
  0.00000000E+00  0.00000000E+00  0.00000000E+00
  0.00000000E+00  0.00000000E+00  0.00000000E+00
  0.00000000E+00  0.00000000E+00  0.00000000E+00
  0.00000000E+00  0.00000000E+00  0.00000000E+00
  0.00000000E+00  0.00000000E+00  0.00000000E+00
  0.00000000E+00  0.00000000E+00  0.00000000E+00
  0.00000000E+00  0.00000000E+00  0.00000000E+00
  0.00000000E+00  0.00000000E+00  0.00000000E+00
  0.00000000E+00  0.00000000E+00  0.00000000E+00
  0.00000000E+00  0.00000000E+00  0.00000000E+00
  0.00000000E+00  0.00000000E+00  0.00000000E+00
  0.00000000E+00  0.00000000E+00  0.00000000E+00
  0.00000000E+00  0.00000000E+00  0.00000000E+00
  0.00000000E+00  0.00000000E+00  0.00000000E+00
  0.00000000E+00  0.00000000E+00  0.00000000E+00
  0.00000000E+00  0.00000000E+00  0.00000000E+00
  0.00000000E+00  0.00000000E+00  0.00000000E+00
  0.00000000E+00  0.00000000E+00  0.00000000E+00
  0.00000000E+00  0.00000000E+00  0.00000000E+00
  0.00000000E+00  0.00000000E+00  0.00000000E+00
  0.00000000E+00  0.00000000E+00  0.00000000E+00
  0.00000000E+00  0.00000000E+00  0.00000000E+00
  0.00000000E+00  0.00000000E+00  0.00000000E+00
  0.00000000E+00  0.00000000E+00  0.00000000E+00
