C N H                                   
   1.00000000000000     
    40.0000000000000000    0.0000000000000000    0.0000000000000000
     0.0000000000000000   40.0000000000000000    0.0000000000000000
     0.0000000000000000    0.0000000000000000   40.0000000000000000
   C    N    H 
     4     1     9
Selective dynamics
Direct
  0.5146255190043832  0.4711460151636442  0.4950643225949268   T   T   T
  0.5146289922679342  0.5288627058236467  0.4951005049266752   T   T   T
  0.4777407401967376  0.5193543548802851  0.5016865507371759   T   T   T
  0.4777554495791818  0.4806365776056183  0.5017312134507410   T   T   T
  0.5350806189150727  0.4999961760109258  0.5052411380804191   T   T   T
  0.5365674363285564  0.4999781878177422  0.5306433139152900   T   T   T
  0.4696691737405774  0.4710178890202819  0.5259923413925074   T   T   T
  0.4610698407879227  0.4701998947982235  0.4827950007434064   T   T   T
  0.4695606474440842  0.5290325535674878  0.5258908768100646   T   T   T
  0.4611161681263785  0.5297275785339949  0.4826623602352261   T   T   T
  0.5185337257773258  0.5329979652960561  0.4683078412910065   T   T   T
  0.5225716983637905  0.5513425826627768  0.5083633557625129   T   T   T
  0.5184892183645277  0.4670745030179118  0.4682555671726388   T   T   T
  0.5225917711035103  0.4486360158014118  0.5082646128874122   T   T   T
 
  0.00000000E+00  0.00000000E+00  0.00000000E+00
  0.00000000E+00  0.00000000E+00  0.00000000E+00
  0.00000000E+00  0.00000000E+00  0.00000000E+00
  0.00000000E+00  0.00000000E+00  0.00000000E+00
  0.00000000E+00  0.00000000E+00  0.00000000E+00
  0.00000000E+00  0.00000000E+00  0.00000000E+00
  0.00000000E+00  0.00000000E+00  0.00000000E+00
  0.00000000E+00  0.00000000E+00  0.00000000E+00
  0.00000000E+00  0.00000000E+00  0.00000000E+00
  0.00000000E+00  0.00000000E+00  0.00000000E+00
  0.00000000E+00  0.00000000E+00  0.00000000E+00
  0.00000000E+00  0.00000000E+00  0.00000000E+00
  0.00000000E+00  0.00000000E+00  0.00000000E+00
  0.00000000E+00  0.00000000E+00  0.00000000E+00
