C O H                                   
   1.00000000000000     
    40.0000000000000000    0.0000000000000000    0.0000000000000000
     0.0000000000000000   40.0000000000000000    0.0000000000000000
     0.0000000000000000    0.0000000000000000   40.0000000000000000
   C    O    H 
     4     1     4
Selective dynamics
Direct
  0.4852230787386506  0.4728946534244708  0.5000000000000000   T   T   T
  0.5190432027490306  0.4828012403315869  0.5000000000000000   T   T   T
  0.5190422027490260  0.5171997596684107  0.5000000000000000   T   T   T
  0.4852210787386485  0.5271043465755244  0.5000000000000000   T   T   T
  0.4650107798698770  0.4999990000000025  0.5000000000000000   T   T   T
  0.4731315768033975  0.5511726838941144  0.5000000000000000   T   T   T
  0.5400952517739973  0.5340025689636834  0.4999990000000025   T   T   T
  0.5400972517739923  0.4660004310363159  0.5000000000000000   T   T   T
  0.4731345768033970  0.4488253161058836  0.5000000000000000   T   T   T
 
  0.00000000E+00  0.00000000E+00  0.00000000E+00
  0.00000000E+00  0.00000000E+00  0.00000000E+00
  0.00000000E+00  0.00000000E+00  0.00000000E+00
  0.00000000E+00  0.00000000E+00  0.00000000E+00
  0.00000000E+00  0.00000000E+00  0.00000000E+00
  0.00000000E+00  0.00000000E+00  0.00000000E+00
  0.00000000E+00  0.00000000E+00  0.00000000E+00
  0.00000000E+00  0.00000000E+00  0.00000000E+00
  0.00000000E+00  0.00000000E+00  0.00000000E+00
