C O H                                   
   1.00000000000000     
    40.0000000000000000    0.0000000000000000    0.0000000000000000
     0.0000000000000000   40.0000000000000000    0.0000000000000000
     0.0000000000000000    0.0000000000000000   40.0000000000000000
   C    O    H 
    10     1    12
Selective dynamics
Direct
  0.4856662887265305  0.5214951963708548  0.4999971847018306   T   T   T
  0.4536992239785508  0.5073383147961510  0.4999971613776665   T   T   T
  0.4496685617309894  0.4717460362585167  0.5000009965925057   T   T   T
  0.4778391027869652  0.4512662557537205  0.5000025752561723   T   T   T
  0.5096811739979352  0.4651981140905168  0.5000014512173833   T   T   T
  0.5140108953442393  0.5010391266134939  0.4999993072675043   T   T   T
  0.5465541471581078  0.5163052270708709  0.4999964286327016   T   T   T
  0.5766541193597389  0.4999113675494539  0.5000026456319597   T   T   T
  0.6092932788807360  0.5171291597729974  0.5000000840786655   T   T   T
  0.3938615291378678  0.5164260068081495  0.4999999387716026   T   T   T
  0.4279834178191668  0.5287668795944147  0.4999952062014130   T   T   T
  0.6241365145590320  0.5090996488732533  0.4781494819346458   T   T   T
  0.6241324078881505  0.5091121194247009  0.5218578820309479   T   T   T
  0.6069935723208486  0.5444424960935040  0.4999921098768284   T   T   T
  0.5773547722684769  0.4726025568867036  0.5000096806457680   T   T   T
  0.5468985780305787  0.5436472362400058  0.4999908418083440   T   T   T
  0.5313969667536907  0.4488079184430103  0.5000024156146834   T   T   T
  0.4747502696811606  0.4242238973346136  0.5000040190254122   T   T   T
  0.4248110092757115  0.4606858733273322  0.5000035568722014   T   T   T
  0.3783384973456747  0.5389072102263985  0.4999998313637940   T   T   T
  0.3890858739434537  0.5016143758187834  0.5226012565229362   T   T   T
  0.3890804490021788  0.5016111721017016  0.4774007970186688   T   T   T
  0.4881093500102510  0.5486238105508600  0.4999951475563433   T   T   T
 
  0.00000000E+00  0.00000000E+00  0.00000000E+00
  0.00000000E+00  0.00000000E+00  0.00000000E+00
  0.00000000E+00  0.00000000E+00  0.00000000E+00
  0.00000000E+00  0.00000000E+00  0.00000000E+00
  0.00000000E+00  0.00000000E+00  0.00000000E+00
  0.00000000E+00  0.00000000E+00  0.00000000E+00
  0.00000000E+00  0.00000000E+00  0.00000000E+00
  0.00000000E+00  0.00000000E+00  0.00000000E+00
  0.00000000E+00  0.00000000E+00  0.00000000E+00
  0.00000000E+00  0.00000000E+00  0.00000000E+00
  0.00000000E+00  0.00000000E+00  0.00000000E+00
  0.00000000E+00  0.00000000E+00  0.00000000E+00
  0.00000000E+00  0.00000000E+00  0.00000000E+00
  0.00000000E+00  0.00000000E+00  0.00000000E+00
  0.00000000E+00  0.00000000E+00  0.00000000E+00
  0.00000000E+00  0.00000000E+00  0.00000000E+00
  0.00000000E+00  0.00000000E+00  0.00000000E+00
  0.00000000E+00  0.00000000E+00  0.00000000E+00
  0.00000000E+00  0.00000000E+00  0.00000000E+00
  0.00000000E+00  0.00000000E+00  0.00000000E+00
  0.00000000E+00  0.00000000E+00  0.00000000E+00
  0.00000000E+00  0.00000000E+00  0.00000000E+00
  0.00000000E+00  0.00000000E+00  0.00000000E+00
