C N H                                   
   1.00000000000000     
    40.0000000000000000    0.0000000000000000    0.0000000000000000
     0.0000000000000000   40.0000000000000000    0.0000000000000000
     0.0000000000000000    0.0000000000000000   40.0000000000000000
   C    N    H 
     6     1    15
Selective dynamics
Direct
  0.4697249000541603  0.4992341078904587  0.5217926322140727   T   T   T
  0.4419995397147716  0.4999790780383790  0.4951600562626481   T   T   T
  0.5155593775335561  0.4768251300178079  0.4873167609523605   T   T   T
  0.5147588782736037  0.4419053383596037  0.5026607031517969   T   T   T
  0.5110838383937235  0.5366428136824410  0.4967933036751120   T   T   T
  0.5478666362019027  0.5466949171932072  0.4994346661411697   T   T   T
  0.5042708505771145  0.5031880590885578  0.5100780950158281   T   T   T
  0.4174149332064303  0.4975026247714283  0.5072093231584560   T   T   T
  0.4444600371051664  0.4793530792567466  0.4771540578488569   T   T   T
  0.4420213695759472  0.5235688477941878  0.4810364043068631   T   T   T
  0.4681772681247054  0.4756313513892181  0.5358486607313040   T   T   T
  0.4652440344496540  0.5192557923342918  0.5401567047620262   T   T   T
  0.4891518796469043  0.4327866941177589  0.5066839672928865   T   T   T
  0.5271990426417901  0.4240689724213311  0.4858785228825155   T   T   T
  0.5278656285176453  0.4416675349883690  0.5268197731036821   T   T   T
  0.5011376533650633  0.4768532539140580  0.4634807017755591   T   T   T
  0.5415051620015419  0.4827209774795733  0.4803939523092069   T   T   T
  0.5641845711385542  0.5308854184340532  0.4839829382816490   T   T   T
  0.5564351973016883  0.5449000447195971  0.5254771155752138   T   T   T
  0.5511739675768652  0.5726046141289416  0.4908705132301208   T   T   T
  0.5027370005385805  0.5392652681216106  0.4703653713325693   T   T   T
  0.4960292340606003  0.5544670818583768  0.5114057759960957   T   T   T
 
  0.00000000E+00  0.00000000E+00  0.00000000E+00
  0.00000000E+00  0.00000000E+00  0.00000000E+00
  0.00000000E+00  0.00000000E+00  0.00000000E+00
  0.00000000E+00  0.00000000E+00  0.00000000E+00
  0.00000000E+00  0.00000000E+00  0.00000000E+00
  0.00000000E+00  0.00000000E+00  0.00000000E+00
  0.00000000E+00  0.00000000E+00  0.00000000E+00
  0.00000000E+00  0.00000000E+00  0.00000000E+00
  0.00000000E+00  0.00000000E+00  0.00000000E+00
  0.00000000E+00  0.00000000E+00  0.00000000E+00
  0.00000000E+00  0.00000000E+00  0.00000000E+00
  0.00000000E+00  0.00000000E+00  0.00000000E+00
  0.00000000E+00  0.00000000E+00  0.00000000E+00
  0.00000000E+00  0.00000000E+00  0.00000000E+00
  0.00000000E+00  0.00000000E+00  0.00000000E+00
  0.00000000E+00  0.00000000E+00  0.00000000E+00
  0.00000000E+00  0.00000000E+00  0.00000000E+00
  0.00000000E+00  0.00000000E+00  0.00000000E+00
  0.00000000E+00  0.00000000E+00  0.00000000E+00
  0.00000000E+00  0.00000000E+00  0.00000000E+00
  0.00000000E+00  0.00000000E+00  0.00000000E+00
  0.00000000E+00  0.00000000E+00  0.00000000E+00
