C O H                                   
   1.00000000000000     
    40.0000000000000000    0.0000000000000000    0.0000000000000000
     0.0000000000000000   40.0000000000000000    0.0000000000000000
     0.0000000000000000    0.0000000000000000   40.0000000000000000
   C    O    H 
     8     1     8
Selective dynamics
Direct
  0.5103489023927271  0.4765133266925529  0.4999898557788739   T   T   T
  0.5452756525294252  0.4758619812740150  0.4999966170413675   T   T   T
  0.5633723478764016  0.5057867343231663  0.5000053381908670   T   T   T
  0.5464624691641198  0.5364691136392622  0.5000027878324697   T   T   T
  0.5116524746589964  0.5371343480384370  0.4999944652540899   T   T   T
  0.4931482028383474  0.5072066470549137  0.4999956238162029   T   T   T
  0.4557620400227546  0.5091713894250515  0.4999926639812405   T   T   T
  0.4357100596738576  0.4772085479290051  0.5000039444755631   T   T   T
  0.4414975967712200  0.5366553196686916  0.4999973985599614   T   T   T
  0.4090023599064481  0.4832230720075448  0.5000048648568357   T   T   T
  0.4416894465430939  0.4619752833375346  0.5221052313122073   T   T   T
  0.4416848798358450  0.4619661006506454  0.4779088663391927   T   T   T
  0.4981595039665765  0.5608218535735920  0.4999947557340306   T   T   T
  0.5605098738795063  0.5598342280686195  0.5000075059608493   T   T   T
  0.5906456110172709  0.5052563597398090  0.5000136117272637   T   T   T
  0.5584241078091972  0.4519713955897726  0.5000002611880876   T   T   T
  0.4966554711142171  0.4529442989874150  0.4999852079508996   T   T   T
 
  0.00000000E+00  0.00000000E+00  0.00000000E+00
  0.00000000E+00  0.00000000E+00  0.00000000E+00
  0.00000000E+00  0.00000000E+00  0.00000000E+00
  0.00000000E+00  0.00000000E+00  0.00000000E+00
  0.00000000E+00  0.00000000E+00  0.00000000E+00
  0.00000000E+00  0.00000000E+00  0.00000000E+00
  0.00000000E+00  0.00000000E+00  0.00000000E+00
  0.00000000E+00  0.00000000E+00  0.00000000E+00
  0.00000000E+00  0.00000000E+00  0.00000000E+00
  0.00000000E+00  0.00000000E+00  0.00000000E+00
  0.00000000E+00  0.00000000E+00  0.00000000E+00
  0.00000000E+00  0.00000000E+00  0.00000000E+00
  0.00000000E+00  0.00000000E+00  0.00000000E+00
  0.00000000E+00  0.00000000E+00  0.00000000E+00
  0.00000000E+00  0.00000000E+00  0.00000000E+00
  0.00000000E+00  0.00000000E+00  0.00000000E+00
  0.00000000E+00  0.00000000E+00  0.00000000E+00
