C H                                     
   1.00000000000000     
    40.0000000000000000    0.0000000000000000    0.0000000000000000
     0.0000000000000000   40.0000000000000000    0.0000000000000000
     0.0000000000000000    0.0000000000000000   40.0000000000000000
   C    H 
     6     6
Selective dynamics
Direct
  0.4692884468623169  0.5167225722941884  0.5000000000000000   T   T   T
  0.4991258084858344  0.5349598452920117  0.5000000000000000   T   T   T
  0.5298335081240817  0.5182366523569883  0.5000000000000000   T   T   T
  0.5307115531376830  0.4832774277058116  0.5000000000000000   T   T   T
  0.5008741915141657  0.4650401547079883  0.5000000000000000   T   T   T
  0.4701664918759184  0.4817633476430116  0.5000000000000000   T   T   T
  0.4468806245232517  0.4675312142011409  0.5000000000000000   T   T   T
  0.5015597352352174  0.4377614711513811  0.5000000000000000   T   T   T
  0.5546791066691874  0.4702326698225342  0.4999990000000025   T   T   T
  0.5531193754767555  0.5324687857988591  0.5000000000000000   T   T   T
  0.4984402647647898  0.5622385288486188  0.5000000000000000   T   T   T
  0.4453208933308125  0.5297673301774729  0.5000000000000000   T   T   T
 
  0.00000000E+00  0.00000000E+00  0.00000000E+00
  0.00000000E+00  0.00000000E+00  0.00000000E+00
  0.00000000E+00  0.00000000E+00  0.00000000E+00
  0.00000000E+00  0.00000000E+00  0.00000000E+00
  0.00000000E+00  0.00000000E+00  0.00000000E+00
  0.00000000E+00  0.00000000E+00  0.00000000E+00
  0.00000000E+00  0.00000000E+00  0.00000000E+00
  0.00000000E+00  0.00000000E+00  0.00000000E+00
  0.00000000E+00  0.00000000E+00  0.00000000E+00
  0.00000000E+00  0.00000000E+00  0.00000000E+00
  0.00000000E+00  0.00000000E+00  0.00000000E+00
  0.00000000E+00  0.00000000E+00  0.00000000E+00
