C O H                                   
   1.00000000000000     
    40.0000000000000000    0.0000000000000000    0.0000000000000000
     0.0000000000000000   40.0000000000000000    0.0000000000000000
     0.0000000000000000    0.0000000000000000   40.0000000000000000
   C    O    H 
    10     1    12
Selective dynamics
Direct
  0.4726477890622893  0.4910736672270833  0.4995013111174229   T   T   T
  0.4406526453285267  0.5053407279433201  0.5009053535728341   T   T   T
  0.4370182156470147  0.5401188099544579  0.5010591677791084   T   T   T
  0.4651774476466168  0.5607502507192410  0.4996076949257653   T   T   T
  0.4969416791733838  0.5464081903302310  0.4980124734949965   T   T   T
  0.5017060325684123  0.5115747770013362  0.4981095243123809   T   T   T
  0.5348673706588195  0.4959309005978479  0.4965463820494823   T   T   T
  0.5644717402473003  0.5107182712298808  0.5029010942244682   T   T   T
  0.5975322120500777  0.4933782050590511  0.5005789379704559   T   T   T
  0.4499031483321133  0.4352593778149064  0.5004918489682386   T   T   T
  0.4782357640373786  0.4572641332823763  0.4996911398251540   T   T   T
  0.5946952497676482  0.4670457587816721  0.4932651796647915   T   T   T
  0.6139584819764821  0.5057292033077305  0.4822029615927101   T   T   T
  0.6109375782613237  0.4943089787327159  0.5246457176075865   T   T   T
  0.5652171333960618  0.5370038382136045  0.5105763605822174   T   T   T
  0.5350367536913792  0.4694037559226220  0.4899180951081675   T   T   T
  0.5187982320597304  0.5626510089485189  0.4962354505532706   T   T   T
  0.4624251035701289  0.5878794951288785  0.4994387589828816   T   T   T
  0.4119959030365345  0.5509334524101851  0.5022111604565150   T   T   T
  0.4185162736474284  0.4895490644857559  0.5020396746357741   T   T   T
  0.4337117550974134  0.4389946232246529  0.4785432377313294   T   T   T
  0.4352169116337998  0.4387334156781233  0.5235144722109044   T   T   T
  0.4603345791101144  0.4099510940057979  0.5000030026335538   T   T   T
 
  0.00000000E+00  0.00000000E+00  0.00000000E+00
  0.00000000E+00  0.00000000E+00  0.00000000E+00
  0.00000000E+00  0.00000000E+00  0.00000000E+00
  0.00000000E+00  0.00000000E+00  0.00000000E+00
  0.00000000E+00  0.00000000E+00  0.00000000E+00
  0.00000000E+00  0.00000000E+00  0.00000000E+00
  0.00000000E+00  0.00000000E+00  0.00000000E+00
  0.00000000E+00  0.00000000E+00  0.00000000E+00
  0.00000000E+00  0.00000000E+00  0.00000000E+00
  0.00000000E+00  0.00000000E+00  0.00000000E+00
  0.00000000E+00  0.00000000E+00  0.00000000E+00
  0.00000000E+00  0.00000000E+00  0.00000000E+00
  0.00000000E+00  0.00000000E+00  0.00000000E+00
  0.00000000E+00  0.00000000E+00  0.00000000E+00
  0.00000000E+00  0.00000000E+00  0.00000000E+00
  0.00000000E+00  0.00000000E+00  0.00000000E+00
  0.00000000E+00  0.00000000E+00  0.00000000E+00
  0.00000000E+00  0.00000000E+00  0.00000000E+00
  0.00000000E+00  0.00000000E+00  0.00000000E+00
  0.00000000E+00  0.00000000E+00  0.00000000E+00
  0.00000000E+00  0.00000000E+00  0.00000000E+00
  0.00000000E+00  0.00000000E+00  0.00000000E+00
  0.00000000E+00  0.00000000E+00  0.00000000E+00
