C O H                                   
   1.00000000000000     
    40.0000000000000000    0.0000000000000000    0.0000000000000000
     0.0000000000000000   40.0000000000000000    0.0000000000000000
     0.0000000000000000    0.0000000000000000   40.0000000000000000
   C    O    H 
    14     1    12
Selective dynamics
Direct
  0.4566493029218298  0.5339724847108459  0.4917832622697513   T   T   T
  0.4384261863170246  0.5047215481210114  0.4989433380907629   T   T   T
  0.4561778721817745  0.4752075518642149  0.5060387429854324   T   T   T
  0.4910029717953577  0.4749650560137031  0.5059637900199407   T   T   T
  0.5093229828128790  0.5041927968518419  0.4989035622237736   T   T   T
  0.4913863591372293  0.5337533019500817  0.4918202775395636   T   T   T
  0.5463372512422133  0.5039939140035392  0.4989017773905473   T   T   T
  0.5642754627383468  0.4761663276633646  0.4869407111480537   T   T   T
  0.5991898925343045  0.4761098459664742  0.4868089301380663   T   T   T
  0.6168920380952899  0.5037855617560761  0.4988126915329723   T   T   T
  0.5993825825065281  0.5315737598006138  0.5108560671381920   T   T   T
  0.5644781993277986  0.5317280837881997  0.5108040909086128   T   T   T
  0.4011376420152326  0.5060115822057121  0.4988182503455283   T   T   T
  0.3816915192493697  0.4746065334134024  0.5066425179532127   T   T   T
  0.3863418522209016  0.5324839447056647  0.4924121104230152   T   T   T
  0.5049653297566757  0.5566043284260145  0.4856752143079135   T   T   T
  0.5511200648297161  0.5533600602781730  0.5206869206811382   T   T   T
  0.6129604893409391  0.5532041010539714  0.5204537739992582   T   T   T
  0.6441667634109406  0.5037288439960226  0.4987536817264910   T   T   T
  0.6126234230866863  0.4544536659136837  0.4770753421590027   T   T   T
  0.5507596668521365  0.4546686707779425  0.4769886473390562   T   T   T
  0.5042061725701491  0.4519037833218855  0.5120922502279855   T   T   T
  0.4428680880159457  0.4521726154832932  0.5119292097762204   T   T   T
  0.3548874941235033  0.4800049602483791  0.5054989454904470   T   T   T
  0.3877632814605095  0.4546560288287989  0.4887208695572995   T   T   T
  0.3880597390174682  0.4651494511720781  0.5316615670187590   T   T   T
  0.4429273724392498  0.5568221976850104  0.4860144576090012   T   T   T
 
  0.00000000E+00  0.00000000E+00  0.00000000E+00
  0.00000000E+00  0.00000000E+00  0.00000000E+00
  0.00000000E+00  0.00000000E+00  0.00000000E+00
  0.00000000E+00  0.00000000E+00  0.00000000E+00
  0.00000000E+00  0.00000000E+00  0.00000000E+00
  0.00000000E+00  0.00000000E+00  0.00000000E+00
  0.00000000E+00  0.00000000E+00  0.00000000E+00
  0.00000000E+00  0.00000000E+00  0.00000000E+00
  0.00000000E+00  0.00000000E+00  0.00000000E+00
  0.00000000E+00  0.00000000E+00  0.00000000E+00
  0.00000000E+00  0.00000000E+00  0.00000000E+00
  0.00000000E+00  0.00000000E+00  0.00000000E+00
  0.00000000E+00  0.00000000E+00  0.00000000E+00
  0.00000000E+00  0.00000000E+00  0.00000000E+00
  0.00000000E+00  0.00000000E+00  0.00000000E+00
  0.00000000E+00  0.00000000E+00  0.00000000E+00
  0.00000000E+00  0.00000000E+00  0.00000000E+00
  0.00000000E+00  0.00000000E+00  0.00000000E+00
  0.00000000E+00  0.00000000E+00  0.00000000E+00
  0.00000000E+00  0.00000000E+00  0.00000000E+00
  0.00000000E+00  0.00000000E+00  0.00000000E+00
  0.00000000E+00  0.00000000E+00  0.00000000E+00
  0.00000000E+00  0.00000000E+00  0.00000000E+00
  0.00000000E+00  0.00000000E+00  0.00000000E+00
  0.00000000E+00  0.00000000E+00  0.00000000E+00
  0.00000000E+00  0.00000000E+00  0.00000000E+00
  0.00000000E+00  0.00000000E+00  0.00000000E+00
