C F N O H                               
   1.00000000000000     
    40.0000000000000000    0.0000000000000000    0.0000000000000000
     0.0000000000000000   40.0000000000000000    0.0000000000000000
     0.0000000000000000    0.0000000000000000   40.0000000000000000
   C    F    N    O    H 
     6     1     1     2     4
Selective dynamics
Direct
  0.4701732832805590  0.4693176185436059  0.4999980734801781   T   T   T
  0.5049544464784574  0.4693797847486394  0.4999976850560230   T   T   T
  0.5218631196741441  0.4999995101440931  0.4999997852686562   T   T   T
  0.5049547893479271  0.5306200847187910  0.5000038721120887   T   T   T
  0.4701735905905480  0.5306823421046900  0.5000019227376526   T   T   T
  0.4536722345630793  0.5000001533942608  0.4999993817662371   T   T   T
  0.4196095439567884  0.5000002899481188  0.4999992590894706   T   T   T
  0.5584338660377171  0.4999998502676419  0.4999998342291434   T   T   T
  0.5731926650179133  0.4725884199454171  0.4999986511348880   T   T   T
  0.5731928776924349  0.5274102573667250  0.5000005844783004   T   T   T
  0.4559602016758078  0.5539007356302079  0.5000038186752036   T   T   T
  0.5189300600915416  0.5539444533085316  0.5000052285617684   T   T   T
  0.5189297755928095  0.4460550293622063  0.4999959099627347   T   T   T
  0.4559595460002583  0.4460994705170620  0.4999949934476433   T   T   T
 
  0.00000000E+00  0.00000000E+00  0.00000000E+00
  0.00000000E+00  0.00000000E+00  0.00000000E+00
  0.00000000E+00  0.00000000E+00  0.00000000E+00
  0.00000000E+00  0.00000000E+00  0.00000000E+00
  0.00000000E+00  0.00000000E+00  0.00000000E+00
  0.00000000E+00  0.00000000E+00  0.00000000E+00
  0.00000000E+00  0.00000000E+00  0.00000000E+00
  0.00000000E+00  0.00000000E+00  0.00000000E+00
  0.00000000E+00  0.00000000E+00  0.00000000E+00
  0.00000000E+00  0.00000000E+00  0.00000000E+00
  0.00000000E+00  0.00000000E+00  0.00000000E+00
  0.00000000E+00  0.00000000E+00  0.00000000E+00
  0.00000000E+00  0.00000000E+00  0.00000000E+00
  0.00000000E+00  0.00000000E+00  0.00000000E+00
