C N H                                   
   1.00000000000000     
    40.0000000000000000    0.0000000000000000    0.0000000000000000
     0.0000000000000000   40.0000000000000000    0.0000000000000000
     0.0000000000000000    0.0000000000000000   40.0000000000000000
   C    N    H 
     8     2     4
Selective dynamics
Direct
  0.4694110165534084  0.4896407234373328  0.4999985165997600   T   T   T
  0.4693851395402007  0.5260528344907272  0.5000053183161342   T   T   T
  0.5000008784589909  0.5427808559220182  0.4999991995276005   T   T   T
  0.5306158928917384  0.5260508045872356  0.4999899648356489   T   T   T
  0.5305882835123370  0.4896389426447811  0.4999942695786146   T   T   T
  0.4999988269321136  0.4723665363803562  0.4999933833642487   T   T   T
  0.5608775612968699  0.4717719496237009  0.5000065044318163   T   T   T
  0.4391225444944808  0.4717763558874566  0.4999982407976660   T   T   T
  0.5868611765644616  0.4577264627495907  0.5000199486929731   T   T   T
  0.4131356815557226  0.4577292538996076  0.4999982075230065   T   T   T
  0.4999982162476257  0.4450761680788986  0.4999938653440594   T   T   T
  0.5542103992989453  0.5396350460175441  0.4999905278228027   T   T   T
  0.5000015107562419  0.5701182832586724  0.5000026184156070   T   T   T
  0.4457908718968895  0.5396377830220729  0.5000104347500525   T   T   T
 
  0.00000000E+00  0.00000000E+00  0.00000000E+00
  0.00000000E+00  0.00000000E+00  0.00000000E+00
  0.00000000E+00  0.00000000E+00  0.00000000E+00
  0.00000000E+00  0.00000000E+00  0.00000000E+00
  0.00000000E+00  0.00000000E+00  0.00000000E+00
  0.00000000E+00  0.00000000E+00  0.00000000E+00
  0.00000000E+00  0.00000000E+00  0.00000000E+00
  0.00000000E+00  0.00000000E+00  0.00000000E+00
  0.00000000E+00  0.00000000E+00  0.00000000E+00
  0.00000000E+00  0.00000000E+00  0.00000000E+00
  0.00000000E+00  0.00000000E+00  0.00000000E+00
  0.00000000E+00  0.00000000E+00  0.00000000E+00
  0.00000000E+00  0.00000000E+00  0.00000000E+00
  0.00000000E+00  0.00000000E+00  0.00000000E+00
