C H                                     
   1.00000000000000     
    40.0000000000000000    0.0000000000000000    0.0000000000000000
     0.0000000000000000   40.0000000000000000    0.0000000000000000
     0.0000000000000000    0.0000000000000000   40.0000000000000000
   C    H 
     8     6
Selective dynamics
Direct
  0.5340912429909892  0.4691262026321397  0.4999993749580014   T   T   T
  0.5514071193997054  0.5000007481314981  0.5000001960529374   T   T   T
  0.5340884753120676  0.5308739251023411  0.4999996669803153   T   T   T
  0.4996903357672622  0.5312016615336645  0.4999971524526146   T   T   T
  0.4818492190544958  0.4999985248935488  0.4999966468721126   T   T   T
  0.4996925938728651  0.4687960360586985  0.4999970015919004   T   T   T
  0.4471506633422138  0.4999976867261466  0.4999988704069267   T   T   T
  0.4164160603846980  0.5000009474395597  0.5000024913592185   T   T   T
  0.4856356939212105  0.4454953535784583  0.4999977442474872   T   T   T
  0.3895063710071227  0.5000036784410113  0.5000098230096128   T   T   T
  0.4856309073801839  0.5545020412829871  0.4999980184005324   T   T   T
  0.5480953122354748  0.5542066881032000  0.5000009823968128   T   T   T
  0.5786468235768325  0.5000015024493933  0.5000010672659556   T   T   T
  0.5480991817548855  0.4457940036273484  0.5000009640055794   T   T   T
 
  0.00000000E+00  0.00000000E+00  0.00000000E+00
  0.00000000E+00  0.00000000E+00  0.00000000E+00
  0.00000000E+00  0.00000000E+00  0.00000000E+00
  0.00000000E+00  0.00000000E+00  0.00000000E+00
  0.00000000E+00  0.00000000E+00  0.00000000E+00
  0.00000000E+00  0.00000000E+00  0.00000000E+00
  0.00000000E+00  0.00000000E+00  0.00000000E+00
  0.00000000E+00  0.00000000E+00  0.00000000E+00
  0.00000000E+00  0.00000000E+00  0.00000000E+00
  0.00000000E+00  0.00000000E+00  0.00000000E+00
  0.00000000E+00  0.00000000E+00  0.00000000E+00
  0.00000000E+00  0.00000000E+00  0.00000000E+00
  0.00000000E+00  0.00000000E+00  0.00000000E+00
  0.00000000E+00  0.00000000E+00  0.00000000E+00
