C H                                     
   1.00000000000000     
    40.0000000000000000    0.0000000000000000    0.0000000000000000
     0.0000000000000000   40.0000000000000000    0.0000000000000000
     0.0000000000000000    0.0000000000000000   40.0000000000000000
   C    H 
    12    14
Selective dynamics
Direct
  0.5119265800056190  0.4671277720844785  0.4999954376912598   T   T   T
  0.5350823518850957  0.4943279933248543  0.4999978938415732   T   T   T
  0.5220074890627333  0.5275598843822308  0.4999951463072302   T   T   T
  0.4880731147044387  0.5328710804397377  0.4999875126313900   T   T   T
  0.4649171982592220  0.5056716342024695  0.4999933881790972   T   T   T
  0.4779926846265303  0.4724401669557135  0.4999948994355021   T   T   T
  0.4299334612205568  0.5133028697067643  0.4999875059641484   T   T   T
  0.4041864258758827  0.4906609486712212  0.5000078070054158   T   T   T
  0.3685293351238543  0.5002333163348809  0.5000085318986599   T   T   T
  0.5700662107113632  0.4866966598863949  0.5000011304652565   T   T   T
  0.5958131885971403  0.5093398592079854  0.5000035194510235   T   T   T
  0.6314707635618954  0.4997674634998062  0.5000067607485356   T   T   T
  0.4611635324507063  0.4510401998676550  0.4999911622561545   T   T   T
  0.3557873954294284  0.4891655311212941  0.4781787810346039   T   T   T
  0.3648003217984826  0.5273974637362132  0.4999862032147148   T   T   T
  0.3558035301098207  0.4892050909640416  0.5218693843214582   T   T   T
  0.4096817368302297  0.4638861996785476  0.5000245875037098   T   T   T
  0.4234710994868439  0.5398811533292541  0.4999684104745807   T   T   T
  0.4782336978685893  0.5582980634933514  0.4999821019418068   T   T   T
  0.5388362644417451  0.5489594398298047  0.4999923782485936   T   T   T
  0.6442030475270982  0.5108189661281041  0.5218517684769391   T   T   T
  0.6442063982414028  0.5108113163085909  0.4781614392742425   T   T   T
  0.6352001571145514  0.4726038712969748  0.5000119177690757   T   T   T
  0.5903178598881484  0.5361148043262419  0.4999990917676024   T   T   T
  0.5765289756590380  0.4601186307007363  0.5000041956095295   T   T   T
  0.5217671795195762  0.4417006205226650  0.4999980444878342   T   T   T
 
  0.00000000E+00  0.00000000E+00  0.00000000E+00
  0.00000000E+00  0.00000000E+00  0.00000000E+00
  0.00000000E+00  0.00000000E+00  0.00000000E+00
  0.00000000E+00  0.00000000E+00  0.00000000E+00
  0.00000000E+00  0.00000000E+00  0.00000000E+00
  0.00000000E+00  0.00000000E+00  0.00000000E+00
  0.00000000E+00  0.00000000E+00  0.00000000E+00
  0.00000000E+00  0.00000000E+00  0.00000000E+00
  0.00000000E+00  0.00000000E+00  0.00000000E+00
  0.00000000E+00  0.00000000E+00  0.00000000E+00
  0.00000000E+00  0.00000000E+00  0.00000000E+00
  0.00000000E+00  0.00000000E+00  0.00000000E+00
  0.00000000E+00  0.00000000E+00  0.00000000E+00
  0.00000000E+00  0.00000000E+00  0.00000000E+00
  0.00000000E+00  0.00000000E+00  0.00000000E+00
  0.00000000E+00  0.00000000E+00  0.00000000E+00
  0.00000000E+00  0.00000000E+00  0.00000000E+00
  0.00000000E+00  0.00000000E+00  0.00000000E+00
  0.00000000E+00  0.00000000E+00  0.00000000E+00
  0.00000000E+00  0.00000000E+00  0.00000000E+00
  0.00000000E+00  0.00000000E+00  0.00000000E+00
  0.00000000E+00  0.00000000E+00  0.00000000E+00
  0.00000000E+00  0.00000000E+00  0.00000000E+00
  0.00000000E+00  0.00000000E+00  0.00000000E+00
  0.00000000E+00  0.00000000E+00  0.00000000E+00
  0.00000000E+00  0.00000000E+00  0.00000000E+00
