C O H                                   
   1.00000000000000     
    40.0000000000000000    0.0000000000000000    0.0000000000000000
     0.0000000000000000   40.0000000000000000    0.0000000000000000
     0.0000000000000000    0.0000000000000000   40.0000000000000000
   C    O    H 
    10     2    10
Selective dynamics
Direct
  0.4934701217237674  0.4571324824377356  0.5020687038729932   T   T   T
  0.4590838578523417  0.4537065766698092  0.5004584006060000   T   T   T
  0.4411450513053765  0.4835425857147868  0.4985129765598089   T   T   T
  0.4571095159832339  0.5153835241786240  0.4983981934852935   T   T   T
  0.4911606121795984  0.5189637112537042  0.4999773112304453   T   T   T
  0.5101883040121677  0.4890402792028965  0.5017179598821571   T   T   T
  0.5460840689090034  0.4885314602176223  0.5028149295183013   T   T   T
  0.5667948410034072  0.5157405193007421  0.5020887570270673   T   T   T
  0.6036703394731120  0.5138214693169587  0.5024521581174213   T   T   T
  0.4015511425373219  0.5230966591489761  0.4948182397501455   T   T   T
  0.4334618394242540  0.5395753399871381  0.4964780099054593   T   T   T
  0.4079729329956834  0.4874008455571754  0.4965520069306706   T   T   T
  0.6130248254490525  0.4880897977416794  0.5032328626584004   T   T   T
  0.6139760945013037  0.5265831313929965  0.4802781770505717   T   T   T
  0.6137246620083801  0.5278207123323924  0.5239857801586751   T   T   T
  0.5560449952066975  0.5408599778719818  0.5010058171177505   T   T   T
  0.5576524747578517  0.4637894837079486  0.5040064303557656   T   T   T
  0.5026254074312675  0.5436119501355634  0.4997447678403262   T   T   T
  0.3894653121063953  0.5286908006374844  0.4708008098939658   T   T   T
  0.3861770720198052  0.5303607708940064  0.5163653278201394   T   T   T
  0.4466852710567437  0.4295094163963213  0.5006233139714098   T   T   T
  0.5089322580632327  0.4347475059034664  0.5036180662472276   T   T   T
 
  0.00000000E+00  0.00000000E+00  0.00000000E+00
  0.00000000E+00  0.00000000E+00  0.00000000E+00
  0.00000000E+00  0.00000000E+00  0.00000000E+00
  0.00000000E+00  0.00000000E+00  0.00000000E+00
  0.00000000E+00  0.00000000E+00  0.00000000E+00
  0.00000000E+00  0.00000000E+00  0.00000000E+00
  0.00000000E+00  0.00000000E+00  0.00000000E+00
  0.00000000E+00  0.00000000E+00  0.00000000E+00
  0.00000000E+00  0.00000000E+00  0.00000000E+00
  0.00000000E+00  0.00000000E+00  0.00000000E+00
  0.00000000E+00  0.00000000E+00  0.00000000E+00
  0.00000000E+00  0.00000000E+00  0.00000000E+00
  0.00000000E+00  0.00000000E+00  0.00000000E+00
  0.00000000E+00  0.00000000E+00  0.00000000E+00
  0.00000000E+00  0.00000000E+00  0.00000000E+00
  0.00000000E+00  0.00000000E+00  0.00000000E+00
  0.00000000E+00  0.00000000E+00  0.00000000E+00
  0.00000000E+00  0.00000000E+00  0.00000000E+00
  0.00000000E+00  0.00000000E+00  0.00000000E+00
  0.00000000E+00  0.00000000E+00  0.00000000E+00
  0.00000000E+00  0.00000000E+00  0.00000000E+00
  0.00000000E+00  0.00000000E+00  0.00000000E+00
