C O H                                   
   1.00000000000000     
    40.0000000000000000    0.0000000000000000    0.0000000000000000
     0.0000000000000000   40.0000000000000000    0.0000000000000000
     0.0000000000000000    0.0000000000000000   40.0000000000000000
   C    O    H 
    10     1    12
Selective dynamics
Direct
  0.4720879092867201  0.4904975077482186  0.4992779966341027   T   T   T
  0.4401901525139443  0.5052801831752752  0.5001273886426758   T   T   T
  0.4376498688357583  0.5397520341588992  0.5006136435639578   T   T   T
  0.4665631056888578  0.5604016907531624  0.5001921942475276   T   T   T
  0.4979110714484940  0.5463054156699199  0.4993770425229613   T   T   T
  0.5022124998539010  0.5110606244621761  0.4988818616987002   T   T   T
  0.5341011224012447  0.4951292392993016  0.4978387128416085   T   T   T
  0.5643905571641125  0.5111021059025743  0.5011956283774148   T   T   T
  0.5969449953789798  0.4939647201330126  0.4999789367037382   T   T   T
  0.4494125623222101  0.4346875800291783  0.5003569348733292   T   T   T
  0.4773868919356148  0.4576687314525236  0.4991828278860258   T   T   T
  0.5949148381203295  0.4674017295529589  0.4936360184045109   T   T   T
  0.6136749174597668  0.5066197155956187  0.4820903999891020   T   T   T
  0.6096931375006436  0.4964846340633505  0.5243590667915037   T   T   T
  0.5650460070684115  0.5380630450026920  0.5056474085913606   T   T   T
  0.5343480450206279  0.4680329508588598  0.4945951101548722   T   T   T
  0.5198125946119417  0.5624356850844945  0.4985812374905420   T   T   T
  0.4637043676626296  0.5874694204060527  0.5003572284090648   T   T   T
  0.4129856548419940  0.5513052290241955  0.5013158713212442   T   T   T
  0.4177785859175152  0.4899048124834233  0.5004625033415036   T   T   T
  0.4333105909530824  0.4382018505588793  0.4784172812470950   T   T   T
  0.4351970837136916  0.4383992639311081  0.5235333857300047   T   T   T
  0.4606814402995117  0.4098328306541292  0.4999803205371711   T   T   T
 
  0.00000000E+00  0.00000000E+00  0.00000000E+00
  0.00000000E+00  0.00000000E+00  0.00000000E+00
  0.00000000E+00  0.00000000E+00  0.00000000E+00
  0.00000000E+00  0.00000000E+00  0.00000000E+00
  0.00000000E+00  0.00000000E+00  0.00000000E+00
  0.00000000E+00  0.00000000E+00  0.00000000E+00
  0.00000000E+00  0.00000000E+00  0.00000000E+00
  0.00000000E+00  0.00000000E+00  0.00000000E+00
  0.00000000E+00  0.00000000E+00  0.00000000E+00
  0.00000000E+00  0.00000000E+00  0.00000000E+00
  0.00000000E+00  0.00000000E+00  0.00000000E+00
  0.00000000E+00  0.00000000E+00  0.00000000E+00
  0.00000000E+00  0.00000000E+00  0.00000000E+00
  0.00000000E+00  0.00000000E+00  0.00000000E+00
  0.00000000E+00  0.00000000E+00  0.00000000E+00
  0.00000000E+00  0.00000000E+00  0.00000000E+00
  0.00000000E+00  0.00000000E+00  0.00000000E+00
  0.00000000E+00  0.00000000E+00  0.00000000E+00
  0.00000000E+00  0.00000000E+00  0.00000000E+00
  0.00000000E+00  0.00000000E+00  0.00000000E+00
  0.00000000E+00  0.00000000E+00  0.00000000E+00
  0.00000000E+00  0.00000000E+00  0.00000000E+00
  0.00000000E+00  0.00000000E+00  0.00000000E+00
