C N H                                   
   1.00000000000000     
    40.0000000000000000    0.0000000000000000    0.0000000000000000
     0.0000000000000000   40.0000000000000000    0.0000000000000000
     0.0000000000000000    0.0000000000000000   40.0000000000000000
   C    N    H 
     8     2     4
Selective dynamics
Direct
  0.4693570854785492  0.4897046451853129  0.5000026959201875   T   T   T
  0.4693791316036382  0.5261086079712669  0.5000065443100041   T   T   T
  0.5000000285396027  0.5427866084204140  0.4999954561115842   T   T   T
  0.5306184564470797  0.5261028741347360  0.4999932499099060   T   T   T
  0.5306411592240678  0.4897035068734539  0.5000008252724157   T   T   T
  0.5000023121666146  0.4725762820050292  0.5000049160727542   T   T   T
  0.5608911211549170  0.4716942343294122  0.5000043962976548   T   T   T
  0.4391070800126471  0.4716941251739115  0.4999976562303914   T   T   T
  0.5867409223660118  0.4574295765128227  0.5000104983131948   T   T   T
  0.4132578683951920  0.4574350795064177  0.4999965785339811   T   T   T
  0.4999991081243422  0.4452836799769386  0.4999938768109899   T   T   T
  0.5542134673469974  0.5396836383173209  0.4999855954066703   T   T   T
  0.5000010295068549  0.5701145653726343  0.4999989120282748   T   T   T
  0.4457892296335118  0.5396845762203384  0.5000097987819672   T   T   T
 
  0.00000000E+00  0.00000000E+00  0.00000000E+00
  0.00000000E+00  0.00000000E+00  0.00000000E+00
  0.00000000E+00  0.00000000E+00  0.00000000E+00
  0.00000000E+00  0.00000000E+00  0.00000000E+00
  0.00000000E+00  0.00000000E+00  0.00000000E+00
  0.00000000E+00  0.00000000E+00  0.00000000E+00
  0.00000000E+00  0.00000000E+00  0.00000000E+00
  0.00000000E+00  0.00000000E+00  0.00000000E+00
  0.00000000E+00  0.00000000E+00  0.00000000E+00
  0.00000000E+00  0.00000000E+00  0.00000000E+00
  0.00000000E+00  0.00000000E+00  0.00000000E+00
  0.00000000E+00  0.00000000E+00  0.00000000E+00
  0.00000000E+00  0.00000000E+00  0.00000000E+00
  0.00000000E+00  0.00000000E+00  0.00000000E+00
