C N H                                   
   1.00000000000000     
    40.0000000000000000    0.0000000000000000    0.0000000000000000
     0.0000000000000000   40.0000000000000000    0.0000000000000000
     0.0000000000000000    0.0000000000000000   40.0000000000000000
   C    N    H 
     6     1    15
Selective dynamics
Direct
  0.4696521144555845  0.4992444779202572  0.5217393170890290   T   T   T
  0.4419219075382372  0.4999598113351453  0.4951247208475351   T   T   T
  0.5155905394019484  0.4768006375502765  0.4873584913700739   T   T   T
  0.5147988806588515  0.4418437364484120  0.5026501984532175   T   T   T
  0.5111740658393344  0.5366854260987779  0.4968125409860207   T   T   T
  0.5479676323592173  0.5467773171865886  0.4994536271727483   T   T   T
  0.5043436646747068  0.5031981265129346  0.5102087186201345   T   T   T
  0.4174455115521170  0.4974578095383748  0.5073960111628679   T   T   T
  0.4443044032055496  0.4792887723545931  0.4771603618237350   T   T   T
  0.4418327046978874  0.5235519014181733  0.4810130865776756   T   T   T
  0.4680521264988116  0.4755937737754081  0.5357032673089890   T   T   T
  0.4650616993283947  0.5192784146394729  0.5400641931657475   T   T   T
  0.4891711354312065  0.4327495140138566  0.5066019968559559   T   T   T
  0.5273573043457631  0.4240845871515404  0.4858649758506459   T   T   T
  0.5278206533681811  0.4415044048218135  0.5268689250154850   T   T   T
  0.5009777029617837  0.4768764213742287  0.4636637144203775   T   T   T
  0.5414817579550544  0.4827020315354247  0.4802340378265200   T   T   T
  0.5642755297507378  0.5309920624272166  0.4839753280316756   T   T   T
  0.5565976254989948  0.5450037423077774  0.5254933513842133   T   T   T
  0.5512266255623715  0.5727357641407451  0.4909904429006886   T   T   T
  0.5029086134348049  0.5391117032387172  0.4703526884852067   T   T   T
  0.4960388014804380  0.5545605642102629  0.5112700046514504   T   T   T
 
  0.00000000E+00  0.00000000E+00  0.00000000E+00
  0.00000000E+00  0.00000000E+00  0.00000000E+00
  0.00000000E+00  0.00000000E+00  0.00000000E+00
  0.00000000E+00  0.00000000E+00  0.00000000E+00
  0.00000000E+00  0.00000000E+00  0.00000000E+00
  0.00000000E+00  0.00000000E+00  0.00000000E+00
  0.00000000E+00  0.00000000E+00  0.00000000E+00
  0.00000000E+00  0.00000000E+00  0.00000000E+00
  0.00000000E+00  0.00000000E+00  0.00000000E+00
  0.00000000E+00  0.00000000E+00  0.00000000E+00
  0.00000000E+00  0.00000000E+00  0.00000000E+00
  0.00000000E+00  0.00000000E+00  0.00000000E+00
  0.00000000E+00  0.00000000E+00  0.00000000E+00
  0.00000000E+00  0.00000000E+00  0.00000000E+00
  0.00000000E+00  0.00000000E+00  0.00000000E+00
  0.00000000E+00  0.00000000E+00  0.00000000E+00
  0.00000000E+00  0.00000000E+00  0.00000000E+00
  0.00000000E+00  0.00000000E+00  0.00000000E+00
  0.00000000E+00  0.00000000E+00  0.00000000E+00
  0.00000000E+00  0.00000000E+00  0.00000000E+00
  0.00000000E+00  0.00000000E+00  0.00000000E+00
  0.00000000E+00  0.00000000E+00  0.00000000E+00
