C O H                                   
   1.00000000000000     
    40.0000000000000000    0.0000000000000000    0.0000000000000000
     0.0000000000000000   40.0000000000000000    0.0000000000000000
     0.0000000000000000    0.0000000000000000   40.0000000000000000
   C    O    H 
    10     2    10
Selective dynamics
Direct
  0.4938222332713529  0.4574002423754264  0.5013880158811189   T   T   T
  0.4589361666359371  0.4543048112967948  0.5006794477301171   T   T   T
  0.4409092308094278  0.4835402254630362  0.4997800846974227   T   T   T
  0.4566270545000810  0.5145676999036013  0.4998000113986981   T   T   T
  0.4907093935303816  0.5180126360220760  0.5006499618967588   T   T   T
  0.5100989791611036  0.4884122209664565  0.5013678004685511   T   T   T
  0.5466301731927919  0.4889667996706176  0.5020520280349379   T   T   T
  0.5666722947877609  0.5157835500205660  0.5016210686314554   T   T   T
  0.6039111866214918  0.5143780966692328  0.5023994507435670   T   T   T
  0.4015605107097611  0.5228449051978011  0.4944281804831222   T   T   T
  0.4328879331410551  0.5394533188437352  0.5001459922874243   T   T   T
  0.4068159686847725  0.4877530785722284  0.5000982923488507   T   T   T
  0.6130562452354167  0.4886884598847834  0.5033214021446619   T   T   T
  0.6146996785568615  0.5265527033533363  0.4803713307844469   T   T   T
  0.6138367852598282  0.5278054408269840  0.5241027951350984   T   T   T
  0.5558494563125982  0.5407189384489455  0.5006042999888550   T   T   T
  0.5583286329051408  0.4643871552694660  0.5029831310935178   T   T   T
  0.5020572480383468  0.5425760130590300  0.5008957147281899   T   T   T
  0.3938715120784734  0.5267322502332552  0.4684281102096800   T   T   T
  0.3830532840103725  0.5321489455860274  0.5120849228795090   T   T   T
  0.4467976529220178  0.4301196298148626  0.5008734908319369   T   T   T
  0.5088693796350168  0.4348518785217265  0.5019234676020833   T   T   T
 
  0.00000000E+00  0.00000000E+00  0.00000000E+00
  0.00000000E+00  0.00000000E+00  0.00000000E+00
  0.00000000E+00  0.00000000E+00  0.00000000E+00
  0.00000000E+00  0.00000000E+00  0.00000000E+00
  0.00000000E+00  0.00000000E+00  0.00000000E+00
  0.00000000E+00  0.00000000E+00  0.00000000E+00
  0.00000000E+00  0.00000000E+00  0.00000000E+00
  0.00000000E+00  0.00000000E+00  0.00000000E+00
  0.00000000E+00  0.00000000E+00  0.00000000E+00
  0.00000000E+00  0.00000000E+00  0.00000000E+00
  0.00000000E+00  0.00000000E+00  0.00000000E+00
  0.00000000E+00  0.00000000E+00  0.00000000E+00
  0.00000000E+00  0.00000000E+00  0.00000000E+00
  0.00000000E+00  0.00000000E+00  0.00000000E+00
  0.00000000E+00  0.00000000E+00  0.00000000E+00
  0.00000000E+00  0.00000000E+00  0.00000000E+00
  0.00000000E+00  0.00000000E+00  0.00000000E+00
  0.00000000E+00  0.00000000E+00  0.00000000E+00
  0.00000000E+00  0.00000000E+00  0.00000000E+00
  0.00000000E+00  0.00000000E+00  0.00000000E+00
  0.00000000E+00  0.00000000E+00  0.00000000E+00
  0.00000000E+00  0.00000000E+00  0.00000000E+00
