C Cl O H                                
   1.00000000000000     
    40.0000000000000000    0.0000000000000000    0.0000000000000000
     0.0000000000000000   40.0000000000000000    0.0000000000000000
     0.0000000000000000    0.0000000000000000   40.0000000000000000
   C    Cl   O    H 
     7     1     1     5
Selective dynamics
Direct
  0.4971133731489757  0.4688898987727508  0.4999881293357129   T   T   T
  0.4631060408097836  0.4762238537574245  0.4999820449647032   T   T   T
  0.4523551077438457  0.5095595242773688  0.4999947047446467   T   T   T
  0.4757272281747884  0.5355882673452693  0.5000102079726096   T   T   T
  0.5098525163341239  0.5284827241502033  0.5000148528440518   T   T   T
  0.5207462772074931  0.4950651837265104  0.5000020253007493   T   T   T
  0.5562441922503487  0.4851736077072896  0.5000031580102725   T   T   T
  0.5860595625120699  0.5194925538080970  0.5000123027206993   T   T   T
  0.5671178789752991  0.4569803715813202  0.4999983456335277   T   T   T
  0.5280047293181861  0.5487608868520526  0.5000254898751273   T   T   T
  0.4673351802077874  0.5615190952763285  0.5000210278630094   T   T   T
  0.4256812463090832  0.5152393062865712  0.4999953301113689   T   T   T
  0.4448758885547914  0.4559607021912257  0.4999731270524891   T   T   T
  0.5057797784534190  0.4430650242675856  0.4999792535710181   T   T   T
 
  0.00000000E+00  0.00000000E+00  0.00000000E+00
  0.00000000E+00  0.00000000E+00  0.00000000E+00
  0.00000000E+00  0.00000000E+00  0.00000000E+00
  0.00000000E+00  0.00000000E+00  0.00000000E+00
  0.00000000E+00  0.00000000E+00  0.00000000E+00
  0.00000000E+00  0.00000000E+00  0.00000000E+00
  0.00000000E+00  0.00000000E+00  0.00000000E+00
  0.00000000E+00  0.00000000E+00  0.00000000E+00
  0.00000000E+00  0.00000000E+00  0.00000000E+00
  0.00000000E+00  0.00000000E+00  0.00000000E+00
  0.00000000E+00  0.00000000E+00  0.00000000E+00
  0.00000000E+00  0.00000000E+00  0.00000000E+00
  0.00000000E+00  0.00000000E+00  0.00000000E+00
  0.00000000E+00  0.00000000E+00  0.00000000E+00
