C H                                     
   1.00000000000000     
    40.0000000000000000    0.0000000000000000    0.0000000000000000
     0.0000000000000000   40.0000000000000000    0.0000000000000000
     0.0000000000000000    0.0000000000000000   40.0000000000000000
   C    H 
    10    12
Selective dynamics
Direct
  0.4947612701782731  0.4750096998270001  0.5000866441500413   T   T   T
  0.4603952592736529  0.4709144512366999  0.5001659694994245   T   T   T
  0.4386996426579785  0.4983955332670993  0.5001883187870637   T   T   T
  0.4529276327135975  0.5301999992279843  0.5002026497780100   T   T   T
  0.4874130555554287  0.5344273594910021  0.5001131665558911   T   T   T
  0.5092014528623214  0.5070160428643744  0.5000461663110913   T   T   T
  0.5452814339105601  0.5129863896376988  0.5000153521479348   T   T   T
  0.5697434309775878  0.4901389427478934  0.5000312465021645   T   T   T
  0.6061525707574614  0.4981412684367355  0.4999718950448818   T   T   T
  0.4014898636288863  0.4935018802703154  0.4997729397403324   T   T   T
  0.6186197536566752  0.4873964346705247  0.5218508257074668   T   T   T
  0.6185575370548392  0.4873130573690526  0.4780977407350389   T   T   T
  0.6106051058661633  0.5250550850536513  0.4999137443777768   T   T   T
  0.5634592481576906  0.4636745056357783  0.5000897749508041   T   T   T
  0.5524720303534103  0.5392648568312020  0.4999693278022105   T   T   T
  0.4978034354006710  0.5595036280759560  0.5001675566008773   T   T   T
  0.4367835234275396  0.5520264096466628  0.5003210963363484   T   T   T
  0.3883176667657087  0.5167835540090236  0.5050333071043045   T   T   T
  0.3930401043162588  0.4845065386266963  0.4753524443199409   T   T   T
  0.3937155490378931  0.4749036748781114  0.5182035583493799   T   T   T
  0.4499744924785004  0.4458388591761037  0.5002699491144681   T   T   T
  0.5105859409688877  0.4530028290204391  0.5001373260845176   T   T   T
 
  0.00000000E+00  0.00000000E+00  0.00000000E+00
  0.00000000E+00  0.00000000E+00  0.00000000E+00
  0.00000000E+00  0.00000000E+00  0.00000000E+00
  0.00000000E+00  0.00000000E+00  0.00000000E+00
  0.00000000E+00  0.00000000E+00  0.00000000E+00
  0.00000000E+00  0.00000000E+00  0.00000000E+00
  0.00000000E+00  0.00000000E+00  0.00000000E+00
  0.00000000E+00  0.00000000E+00  0.00000000E+00
  0.00000000E+00  0.00000000E+00  0.00000000E+00
  0.00000000E+00  0.00000000E+00  0.00000000E+00
  0.00000000E+00  0.00000000E+00  0.00000000E+00
  0.00000000E+00  0.00000000E+00  0.00000000E+00
  0.00000000E+00  0.00000000E+00  0.00000000E+00
  0.00000000E+00  0.00000000E+00  0.00000000E+00
  0.00000000E+00  0.00000000E+00  0.00000000E+00
  0.00000000E+00  0.00000000E+00  0.00000000E+00
  0.00000000E+00  0.00000000E+00  0.00000000E+00
  0.00000000E+00  0.00000000E+00  0.00000000E+00
  0.00000000E+00  0.00000000E+00  0.00000000E+00
  0.00000000E+00  0.00000000E+00  0.00000000E+00
  0.00000000E+00  0.00000000E+00  0.00000000E+00
  0.00000000E+00  0.00000000E+00  0.00000000E+00
