C N H                                   
   1.00000000000000     
    25.0000000000000000    0.0000000000000000    0.0000000000000000
     0.0000000000000000   25.0000000000000000    0.0000000000000000
     0.0000000000000000    0.0000000000000000   25.0000000000000000
   C    N    H 
    12     2     8
Selective dynamics
Direct
  0.4869906953050520  0.4911179869529279  0.3588074709048711   T   T   T
  0.4811579289186063  0.4869341333631887  0.5285747116519843   T   T   T
  0.5221476504496108  0.5150982106097058  0.5584137644660021   T   T   T
  0.5183344016193104  0.5125056777443673  0.6156924204312366   T   T   T
  0.4770537738593695  0.4841719958232508  0.6392891786653828   T   T   T
  0.4392961625881045  0.4582396461811801  0.6065265588054388   T   T   T
  0.4831817706434195  0.4884292239998023  0.4695429185346552   T   T   T
  0.5261331754184569  0.5179969671710110  0.4441488118700078   T   T   T
  0.5264388786237839  0.5182014290487834  0.3866786635872252   T   T   T
  0.4470350979037889  0.4636982582842904  0.3874713126259017   T   T   T
  0.5629372552399574  0.5432124218504947  0.5314772528220808   T   T   T
  0.5648857868959096  0.5446258744619414  0.4753059247466461   T   T   T
  0.4413724206476553  0.4596369706021137  0.5525268252529887   T   T   T
  0.4452499638578989  0.4624193366190973  0.4415054304713709   T   T   T
  0.5482116749484371  0.5331081518171801  0.6400753393466131   T   T   T
  0.4733917538332791  0.4817190075292285  0.6827772268500285   T   T   T
  0.4062603936205569  0.4356091150345881  0.6241739273898529   T   T   T
  0.5579674242320181  0.5398421556105218  0.3654837984992699   T   T   T
  0.4864808861650685  0.4907463888305179  0.3151012510645049   T   T   T
  0.4154125341901281  0.4419731990043259  0.3664264177317967   T   T   T
  0.5932771473324391  0.5641294005631514  0.5550223814487223   T   T   T
  0.5967832237071494  0.5665824488983435  0.4549764128334102   T   T   T
 
  0.00000000E+00  0.00000000E+00  0.00000000E+00
  0.00000000E+00  0.00000000E+00  0.00000000E+00
  0.00000000E+00  0.00000000E+00  0.00000000E+00
  0.00000000E+00  0.00000000E+00  0.00000000E+00
  0.00000000E+00  0.00000000E+00  0.00000000E+00
  0.00000000E+00  0.00000000E+00  0.00000000E+00
  0.00000000E+00  0.00000000E+00  0.00000000E+00
  0.00000000E+00  0.00000000E+00  0.00000000E+00
  0.00000000E+00  0.00000000E+00  0.00000000E+00
  0.00000000E+00  0.00000000E+00  0.00000000E+00
  0.00000000E+00  0.00000000E+00  0.00000000E+00
  0.00000000E+00  0.00000000E+00  0.00000000E+00
  0.00000000E+00  0.00000000E+00  0.00000000E+00
  0.00000000E+00  0.00000000E+00  0.00000000E+00
  0.00000000E+00  0.00000000E+00  0.00000000E+00
  0.00000000E+00  0.00000000E+00  0.00000000E+00
  0.00000000E+00  0.00000000E+00  0.00000000E+00
  0.00000000E+00  0.00000000E+00  0.00000000E+00
  0.00000000E+00  0.00000000E+00  0.00000000E+00
  0.00000000E+00  0.00000000E+00  0.00000000E+00
  0.00000000E+00  0.00000000E+00  0.00000000E+00
  0.00000000E+00  0.00000000E+00  0.00000000E+00
