C H                                     
   1.00000000000000     
    40.0000000000000000    0.0000000000000000    0.0000000000000000
     0.0000000000000000   40.0000000000000000    0.0000000000000000
     0.0000000000000000    0.0000000000000000   40.0000000000000000
   C    H 
    10     8
Selective dynamics
Direct
  0.5609033047738023  0.4822689464100947  0.5000000000000000   T   T   T
  0.5609033047738023  0.5177300535899008  0.5000000000000000   T   T   T
  0.5311079092186120  0.5351760742513889  0.5000000000000000   T   T   T
  0.5000000000000000  0.5179800801040955  0.5000000000000000   T   T   T
  0.4688920907813880  0.5351760742513889  0.5000000000000000   T   T   T
  0.4390966952261977  0.5177310535899053  0.5000000000000000   T   T   T
  0.4390966952261977  0.4822699464100992  0.5000000000000000   T   T   T
  0.4688920907813880  0.4648239257486111  0.5000000000000000   T   T   T
  0.5000000000000000  0.4820199198959045  0.5000000000000000   T   T   T
  0.5311079092186120  0.4648239257486111  0.5000000000000000   T   T   T
  0.5309747071870419  0.4375056611899382  0.5000000000000000   T   T   T
  0.4690242928129607  0.4375066611899356  0.5000000000000000   T   T   T
  0.4153933607257159  0.4687823015876020  0.5000000000000000   T   T   T
  0.4153943607257204  0.5312186984124025  0.5000000000000000   T   T   T
  0.4690252928129581  0.5624943388100618  0.5000000000000000   T   T   T
  0.5309757071870393  0.5624933388100644  0.5000000000000000   T   T   T
  0.5846066392742841  0.5312176984123980  0.5000000000000000   T   T   T
  0.5846056392742796  0.4687813015875975  0.5000000000000000   T   T   T
 
  0.00000000E+00  0.00000000E+00  0.00000000E+00
  0.00000000E+00  0.00000000E+00  0.00000000E+00
  0.00000000E+00  0.00000000E+00  0.00000000E+00
  0.00000000E+00  0.00000000E+00  0.00000000E+00
  0.00000000E+00  0.00000000E+00  0.00000000E+00
  0.00000000E+00  0.00000000E+00  0.00000000E+00
  0.00000000E+00  0.00000000E+00  0.00000000E+00
  0.00000000E+00  0.00000000E+00  0.00000000E+00
  0.00000000E+00  0.00000000E+00  0.00000000E+00
  0.00000000E+00  0.00000000E+00  0.00000000E+00
  0.00000000E+00  0.00000000E+00  0.00000000E+00
  0.00000000E+00  0.00000000E+00  0.00000000E+00
  0.00000000E+00  0.00000000E+00  0.00000000E+00
  0.00000000E+00  0.00000000E+00  0.00000000E+00
  0.00000000E+00  0.00000000E+00  0.00000000E+00
  0.00000000E+00  0.00000000E+00  0.00000000E+00
  0.00000000E+00  0.00000000E+00  0.00000000E+00
  0.00000000E+00  0.00000000E+00  0.00000000E+00
