!r2SCAN opt aug-cc-pVTZ d3 TightSCF SlowConv RIJCOSX defgrid2

%pal
nprocs 8
end

%scf
MaxIter 1500
end

%maxcore 3500

!CPCM
%cpcm smd true
SMDsolvent "MeCN"
surfacetype gepol_ses
rsolv 2.19
end 

* xyz 0 1
6        0.869258600     -1.201261200     -0.144915000
6        1.234613600      0.150270800     -0.130886400
6        0.208119000      1.103463400     -0.079009800
6       -1.139836200      0.753061400      0.007900200
6       -1.490324200     -0.608879200      0.015923200
6       -0.468486600     -1.562701600     -0.071344200
1       -0.733964800     -2.614925200     -0.095442200
6       -2.927417800     -1.030229800      0.094477600
1       -3.018839000     -2.116245000      0.088339600
1       -3.509157600     -0.636032600     -0.746434600
1       -3.405843000     -0.654324400      1.005901000
6       -2.198956600      1.813740200      0.086955000
1       -2.786571400      1.726087400      1.008512800
1       -2.909900200      1.735958000     -0.744029400
1       -1.757571200      2.810172600      0.061799000
1        0.475496800      2.156237800     -0.087427600
6        2.623814200      0.609179400     -0.159846800
6        3.724800400     -0.148721200      0.319744600
1        3.690067000     -1.232861800      0.820241200
1        4.707011000      0.307806400      0.245942600
1        2.743099000      1.690805800     -0.581609000
1        1.627673200     -1.975115200     -0.246688400
*
