C O H                                   
   1.00000000000000     
    40.0000000000000000    0.0000000000000000    0.0000000000000000
     0.0000000000000000   40.0000000000000000    0.0000000000000000
     0.0000000000000000    0.0000000000000000   40.0000000000000000
   C    O    H 
    10     2    10
Selective dynamics
Direct
  0.4937875939560215  0.4571057130026119  0.5014034179150784   T   T   T
  0.4587333266044951  0.4540288594558533  0.5006685982358263   T   T   T
  0.4405974356557678  0.4834389061666897  0.4997693859706231   T   T   T
  0.4564456282350449  0.5146284943887878  0.4998038889286178   T   T   T
  0.4907165495788703  0.5180137973586270  0.5006625988548805   T   T   T
  0.5101779111925140  0.4882652828941048  0.5013888201524068   T   T   T
  0.5468372103750809  0.4888855419735023  0.5020681683079076   T   T   T
  0.5669413844518232  0.5159252643911145  0.5016241278705351   T   T   T
  0.6042973644167020  0.5145114023629986  0.5023958852194994   T   T   T
  0.4011123152645979  0.5230658394872663  0.4943948217397178   T   T   T
  0.4327244585241203  0.5396876427599864  0.5001971818231965   T   T   T
  0.4063944121591376  0.4876811001482366  0.5000932935997184   T   T   T
  0.6134874589270254  0.4886298368706150  0.5033251200957309   T   T   T
  0.6151717279628102  0.5267604876498879  0.4802206224995444   T   T   T
  0.6143061960961020  0.5280236205862181  0.5242448802767683   T   T   T
  0.5559531875738344  0.5409908727880577  0.5006213114070590   T   T   T
  0.5586803712522723  0.4641732947279564  0.5029951185681298   T   T   T
  0.5022166069688652  0.5427007593421180  0.5009256648097562   T   T   T
  0.3934484553081958  0.5269777286048196  0.4682084947754106   T   T   T
  0.3825095709387085  0.5324502900910488  0.5121942657850482   T   T   T
  0.4465607867896466  0.4296633691103011  0.5008493031179384   T   T   T
  0.5089010477683473  0.4343908958392078  0.5019440300466087   T   T   T
 
  0.00000000E+00  0.00000000E+00  0.00000000E+00
  0.00000000E+00  0.00000000E+00  0.00000000E+00
  0.00000000E+00  0.00000000E+00  0.00000000E+00
  0.00000000E+00  0.00000000E+00  0.00000000E+00
  0.00000000E+00  0.00000000E+00  0.00000000E+00
  0.00000000E+00  0.00000000E+00  0.00000000E+00
  0.00000000E+00  0.00000000E+00  0.00000000E+00
  0.00000000E+00  0.00000000E+00  0.00000000E+00
  0.00000000E+00  0.00000000E+00  0.00000000E+00
  0.00000000E+00  0.00000000E+00  0.00000000E+00
  0.00000000E+00  0.00000000E+00  0.00000000E+00
  0.00000000E+00  0.00000000E+00  0.00000000E+00
  0.00000000E+00  0.00000000E+00  0.00000000E+00
  0.00000000E+00  0.00000000E+00  0.00000000E+00
  0.00000000E+00  0.00000000E+00  0.00000000E+00
  0.00000000E+00  0.00000000E+00  0.00000000E+00
  0.00000000E+00  0.00000000E+00  0.00000000E+00
  0.00000000E+00  0.00000000E+00  0.00000000E+00
  0.00000000E+00  0.00000000E+00  0.00000000E+00
  0.00000000E+00  0.00000000E+00  0.00000000E+00
  0.00000000E+00  0.00000000E+00  0.00000000E+00
  0.00000000E+00  0.00000000E+00  0.00000000E+00
