C O H                                   
   1.00000000000000     
    25.0000000000000000    0.0000000000000000    0.0000000000000000
     0.0000000000000000   25.0000000000000000    0.0000000000000000
     0.0000000000000000    0.0000000000000000   25.0000000000000000
   C    O    H 
    11     2     8
Selective dynamics
Direct
  0.5022847729898074  0.4922230465690280  0.4270646612871662   T   T   T
  0.5018719573308752  0.5492945086958146  0.4336604011740407   T   T   T
  0.5003076486691646  0.5751284987464268  0.4827666334713657   T   T   T
  0.4989098792543821  0.5447541501826583  0.5321156855886928   T   T   T
  0.4992244830522035  0.4860298259854975  0.5274374985339818   T   T   T
  0.5009063138586056  0.4602745523587190  0.4765256683863516   T   T   T
  0.5011425130673298  0.4038410904558860  0.4742828142523768   T   T   T
  0.4997318170745636  0.3732261077484000  0.5206518905604114   T   T   T
  0.4980783407297177  0.3986438804841000  0.5709808379675803   T   T   T
  0.4978518619904299  0.4541218340133488  0.5740124925005849   T   T   T
  0.4999714711727390  0.6351253443698450  0.4867150667351364   T   T   T
  0.4974279054583587  0.5678386837833502  0.5777727703777491   T   T   T
  0.5037377563316183  0.4701683757862589  0.3808225748796449   T   T   T
  0.5029065253082150  0.5730516801284843  0.3968678861257360   T   T   T
  0.4965989117186057  0.4743545241634688  0.6126560153931675   T   T   T
  0.4970307038694480  0.3747078374801464  0.6074825100474751   T   T   T
  0.4999688675888121  0.3296167867461042  0.5181866602554814   T   T   T
  0.5024451951973353  0.3847750433919752  0.4350119946622081   T   T   T
  0.4641026458028557  0.6494145926257189  0.5079663886488239   T   T   T
  0.5343964921634916  0.6496689789060535  0.5100704008474650   T   T   T
  0.5011069373714537  0.6537396573787029  0.4469481483045691   T   T   T
 
  0.00000000E+00  0.00000000E+00  0.00000000E+00
  0.00000000E+00  0.00000000E+00  0.00000000E+00
  0.00000000E+00  0.00000000E+00  0.00000000E+00
  0.00000000E+00  0.00000000E+00  0.00000000E+00
  0.00000000E+00  0.00000000E+00  0.00000000E+00
  0.00000000E+00  0.00000000E+00  0.00000000E+00
  0.00000000E+00  0.00000000E+00  0.00000000E+00
  0.00000000E+00  0.00000000E+00  0.00000000E+00
  0.00000000E+00  0.00000000E+00  0.00000000E+00
  0.00000000E+00  0.00000000E+00  0.00000000E+00
  0.00000000E+00  0.00000000E+00  0.00000000E+00
  0.00000000E+00  0.00000000E+00  0.00000000E+00
  0.00000000E+00  0.00000000E+00  0.00000000E+00
  0.00000000E+00  0.00000000E+00  0.00000000E+00
  0.00000000E+00  0.00000000E+00  0.00000000E+00
  0.00000000E+00  0.00000000E+00  0.00000000E+00
  0.00000000E+00  0.00000000E+00  0.00000000E+00
  0.00000000E+00  0.00000000E+00  0.00000000E+00
  0.00000000E+00  0.00000000E+00  0.00000000E+00
  0.00000000E+00  0.00000000E+00  0.00000000E+00
  0.00000000E+00  0.00000000E+00  0.00000000E+00
