C H                                     
   1.00000000000000     
    40.0000000000000000    0.0000000000000000    0.0000000000000000
     0.0000000000000000   40.0000000000000000    0.0000000000000000
     0.0000000000000000    0.0000000000000000   40.0000000000000000
   C    H 
    12    14
Selective dynamics
Direct
  0.5199528083318055  0.4860759441462636  0.4984186188675768   T   T   T
  0.5468314134414625  0.4641967157729411  0.5056328271341540   T   T   T
  0.5793604347012505  0.4757259339775721  0.5063690956702378   T   T   T
  0.5865069192451384  0.5098210762872122  0.4999474826429866   T   T   T
  0.5608721176518824  0.5320722457829932  0.4936360649753779   T   T   T
  0.5271083457655718  0.5215149844133830  0.4945606874173220   T   T   T
  0.5016380301091646  0.5467401914667983  0.4932979333563159   T   T   T
  0.4702560960041442  0.5449522068665799  0.5069323144059739   T   T   T
  0.4447920198244641  0.5715667266267759  0.5042217902691957   T   T   T
  0.4869831792519036  0.4733775899204577  0.4918284402646037   T   T   T
  0.4745255326640964  0.4435657352682028  0.5033652862516662   T   T   T
  0.4404866579686241  0.4312333284898269  0.4963712176628593   T   T   T
  0.4222452021970191  0.5616250152270832  0.4917894988810802   T   T   T
  0.4362653075283822  0.5793299611058621  0.5292471937576398   T   T   T
  0.4536384222538236  0.5934149707950385  0.4902592916597420   T   T   T
  0.4635403252522412  0.5231100254488836  0.5219488455313605   T   T   T
  0.5092072853885077  0.5706593669209359  0.4823566902912517   T   T   T
  0.5662486109214315  0.5584807505387792  0.4895581368267433   T   T   T
  0.6123144091234410  0.5185108015238084  0.5003920559645187   T   T   T
  0.5997949349810409  0.4582913368272981  0.5108787002090588   T   T   T
  0.5420203774111255  0.4375362826674464  0.5083854873867686   T   T   T
  0.4262075187612022  0.4478863553209717  0.4799623909277935   T   T   T
  0.4417543183033958  0.4061078721733060  0.4850430489175053   T   T   T
  0.4266509888722693  0.4275963957617748  0.5199558555422499   T   T   T
  0.4900970654572725  0.4279461770730885  0.5195371406215894   T   T   T
  0.4707026785893441  0.4886610095967261  0.4761029045644027   T   T   T
 
  0.00000000E+00  0.00000000E+00  0.00000000E+00
  0.00000000E+00  0.00000000E+00  0.00000000E+00
  0.00000000E+00  0.00000000E+00  0.00000000E+00
  0.00000000E+00  0.00000000E+00  0.00000000E+00
  0.00000000E+00  0.00000000E+00  0.00000000E+00
  0.00000000E+00  0.00000000E+00  0.00000000E+00
  0.00000000E+00  0.00000000E+00  0.00000000E+00
  0.00000000E+00  0.00000000E+00  0.00000000E+00
  0.00000000E+00  0.00000000E+00  0.00000000E+00
  0.00000000E+00  0.00000000E+00  0.00000000E+00
  0.00000000E+00  0.00000000E+00  0.00000000E+00
  0.00000000E+00  0.00000000E+00  0.00000000E+00
  0.00000000E+00  0.00000000E+00  0.00000000E+00
  0.00000000E+00  0.00000000E+00  0.00000000E+00
  0.00000000E+00  0.00000000E+00  0.00000000E+00
  0.00000000E+00  0.00000000E+00  0.00000000E+00
  0.00000000E+00  0.00000000E+00  0.00000000E+00
  0.00000000E+00  0.00000000E+00  0.00000000E+00
  0.00000000E+00  0.00000000E+00  0.00000000E+00
  0.00000000E+00  0.00000000E+00  0.00000000E+00
  0.00000000E+00  0.00000000E+00  0.00000000E+00
  0.00000000E+00  0.00000000E+00  0.00000000E+00
  0.00000000E+00  0.00000000E+00  0.00000000E+00
  0.00000000E+00  0.00000000E+00  0.00000000E+00
  0.00000000E+00  0.00000000E+00  0.00000000E+00
  0.00000000E+00  0.00000000E+00  0.00000000E+00
