C N S H                                 
   1.00000000000000     
    40.0000000000000000    0.0000000000000000    0.0000000000000000
     0.0000000000000000   40.0000000000000000    0.0000000000000000
     0.0000000000000000    0.0000000000000000   40.0000000000000000
   C    N    S    H 
    16     3     1    18
Selective dynamics
Direct
  0.4660006096291514  0.5048036689710164  0.4999118031227264   T   T   T
  0.4344260491118996  0.5190631568860861  0.4998219974159940   T   T   T
  0.4053162951106513  0.4987833693284076  0.4997036197572333   T   T   T
  0.4095937868627111  0.4630989950381245  0.4997224891283658   T   T   T
  0.4408281502780957  0.4491877632337078  0.4998076799334554   T   T   T
  0.4705702282118788  0.4690109471822676  0.4999013209972217   T   T   T
  0.5294305331368272  0.4690153402108324  0.5000941427039631   T   T   T
  0.5591739279509196  0.4491926636069688  0.5001786633328215   T   T   T
  0.5904100806626608  0.4631063220607071  0.5002696632405177   T   T   T
  0.5946843899039448  0.4987908749593045  0.5003128156413486   T   T   T
  0.5655719022790198  0.5190683999319523  0.5002105214168500   T   T   T
  0.5339981724820048  0.5048081352480829  0.5001121645292061   T   T   T
  0.6294941076693008  0.5489799463107735  0.5004703457440194   T   T   T
  0.6555906204889842  0.4917925715747750  0.5005129607347087   T   T   T
  0.3444100640370922  0.4917851508429689  0.4994908047038356   T   T   T
  0.3705034631377777  0.5489743011967407  0.4995224742756043   T   T   T
  0.5000020758250014  0.4529879655073323  0.4999901958560096   T   T   T
  0.6255793304265191  0.5126671629466725  0.5004439216384360   T   T   T
  0.3744195357117623  0.5126609785462458  0.4995778572644312   T   T   T
  0.4999979918315162  0.5315722304517841  0.5000113902845622   T   T   T
  0.4440652398224640  0.4221321853290134  0.4997990615494992   T   T   T
  0.5677861674623292  0.5461858964566489  0.5002367377140652   T   T   T
  0.6181861536120080  0.5601812275439790  0.4780293754100346   T   T   T
  0.6179377018823106  0.5601707409888140  0.5227887001345300   T   T   T
  0.6561134552767902  0.5551165206579667  0.5006227278522367   T   T   T
  0.6775949342497241  0.5079905680218633  0.5006600134611606   T   T   T
  0.6565594775763290  0.4758006895094944  0.5228567061929201   T   T   T
  0.6567555188112552  0.4759348205327062  0.4780820818655495   T   T   T
  0.6121848978327588  0.4468363046479233  0.5003408066433163   T   T   T
  0.5559372801006786  0.4221377137847063  0.5001580200736423   T   T   T
  0.3878169022153784  0.4468300029662841  0.4996351476326778   T   T   T
  0.3432709784947756  0.4758743439494942  0.5218848464425402   T   T   T
  0.3434158111490678  0.4758456435077850  0.4771093154663067   T   T   T
  0.3224036420772823  0.5079821781025810  0.4994087213374281   T   T   T
  0.3818207428231451  0.5601933838257913  0.5219493249097242   T   T   T
  0.3820527420913295  0.5601461094492811  0.4771905541512677   T   T   T
  0.3438840946649506  0.5551110475247705  0.4993765674593049   T   T   T
  0.4322129451097120  0.5461806791661393  0.4998074599825063   T   T   T
 
  0.00000000E+00  0.00000000E+00  0.00000000E+00
  0.00000000E+00  0.00000000E+00  0.00000000E+00
  0.00000000E+00  0.00000000E+00  0.00000000E+00
  0.00000000E+00  0.00000000E+00  0.00000000E+00
  0.00000000E+00  0.00000000E+00  0.00000000E+00
  0.00000000E+00  0.00000000E+00  0.00000000E+00
  0.00000000E+00  0.00000000E+00  0.00000000E+00
  0.00000000E+00  0.00000000E+00  0.00000000E+00
  0.00000000E+00  0.00000000E+00  0.00000000E+00
  0.00000000E+00  0.00000000E+00  0.00000000E+00
  0.00000000E+00  0.00000000E+00  0.00000000E+00
  0.00000000E+00  0.00000000E+00  0.00000000E+00
  0.00000000E+00  0.00000000E+00  0.00000000E+00
  0.00000000E+00  0.00000000E+00  0.00000000E+00
  0.00000000E+00  0.00000000E+00  0.00000000E+00
  0.00000000E+00  0.00000000E+00  0.00000000E+00
  0.00000000E+00  0.00000000E+00  0.00000000E+00
  0.00000000E+00  0.00000000E+00  0.00000000E+00
  0.00000000E+00  0.00000000E+00  0.00000000E+00
  0.00000000E+00  0.00000000E+00  0.00000000E+00
  0.00000000E+00  0.00000000E+00  0.00000000E+00
  0.00000000E+00  0.00000000E+00  0.00000000E+00
  0.00000000E+00  0.00000000E+00  0.00000000E+00
  0.00000000E+00  0.00000000E+00  0.00000000E+00
  0.00000000E+00  0.00000000E+00  0.00000000E+00
  0.00000000E+00  0.00000000E+00  0.00000000E+00
  0.00000000E+00  0.00000000E+00  0.00000000E+00
  0.00000000E+00  0.00000000E+00  0.00000000E+00
  0.00000000E+00  0.00000000E+00  0.00000000E+00
  0.00000000E+00  0.00000000E+00  0.00000000E+00
  0.00000000E+00  0.00000000E+00  0.00000000E+00
  0.00000000E+00  0.00000000E+00  0.00000000E+00
  0.00000000E+00  0.00000000E+00  0.00000000E+00
  0.00000000E+00  0.00000000E+00  0.00000000E+00
  0.00000000E+00  0.00000000E+00  0.00000000E+00
  0.00000000E+00  0.00000000E+00  0.00000000E+00
  0.00000000E+00  0.00000000E+00  0.00000000E+00
  0.00000000E+00  0.00000000E+00  0.00000000E+00
