!PBE0 def2-SV(p) Opt Freq d3 TightSCF SlowConv RIJCOSX defgrid2
 
%pal
nprocs 4
end
 
%scf
MaxIter 1500
end
 
%maxcore 3000
 

 
* xyz -1 2
C    -1.2126216   -0.0367755   -0.0000234 
C    -1.2075270    1.4044917   -0.0000343 
C     0.0000407    2.0713930   -0.0000050 
C     1.2075940    1.4044297    0.0000312 
C     1.2126019   -0.0368247    0.0000318 
C    -0.0000096   -0.7179098    0.0000064 
H    -0.0000350   -1.8042482    0.0000124 
C     2.4044096   -0.7445364    0.0000663 
N     3.4070804   -1.3372328    0.0000873 
H     2.1504834    1.9327236    0.0000587 
H     0.0000682    3.1559434   -0.0000085 
H    -2.1503942    1.9328275   -0.0000624 
C    -2.4044464   -0.7444219   -0.0000452 
N    -3.4071535   -1.3370799   -0.0000644
*
