C N H                                   
   1.00000000000000     
    40.0000000000000000    0.0000000000000000    0.0000000000000000
     0.0000000000000000   40.0000000000000000    0.0000000000000000
     0.0000000000000000    0.0000000000000000   40.0000000000000000
   C    N    H 
     9     1     7
Selective dynamics
Direct
  0.5291484330828446  0.4682218122958091  0.5000000000000000   T   T   T
  0.5584949066758902  0.4860399775838394  0.5000000000000000   T   T   T
  0.5578776559909910  0.5213221096690931  0.5000000000000000   T   T   T
  0.5280435106875465  0.5383338769348344  0.5000000000000000   T   T   T
  0.4973864369086566  0.5207440769639590  0.5000000000000000   T   T   T
  0.4400547590206612  0.5215166135199757  0.5000000000000000   T   T   T
  0.4379896900326694  0.4862847672565015  0.5000000000000000   T   T   T
  0.4670347509105425  0.4680724075723960  0.5000000000000000   T   T   T
  0.4980211060536770  0.4849974060373679  0.5000000000000000   T   T   T
  0.4682846181690941  0.5384870488645508  0.5000000000000000   T   T   T
  0.4666131454942549  0.4409366957285414  0.5000000000000000   T   T   T
  0.4137270751341003  0.4742266834572627  0.5000000000000000   T   T   T
  0.4171703570125498  0.5361875569850714  0.5000000000000000   T   T   T
  0.5271980036424695  0.5654208621734595  0.5000000000000000   T   T   T
  0.5812543657408523  0.5350414480708015  0.5000000000000000   T   T   T
  0.5822830632800631  0.4730820032621029  0.5000000000000000   T   T   T
  0.5294191221631412  0.4410836536244433  0.5000000000000000   T   T   T
 
  0.00000000E+00  0.00000000E+00  0.00000000E+00
  0.00000000E+00  0.00000000E+00  0.00000000E+00
  0.00000000E+00  0.00000000E+00  0.00000000E+00
  0.00000000E+00  0.00000000E+00  0.00000000E+00
  0.00000000E+00  0.00000000E+00  0.00000000E+00
  0.00000000E+00  0.00000000E+00  0.00000000E+00
  0.00000000E+00  0.00000000E+00  0.00000000E+00
  0.00000000E+00  0.00000000E+00  0.00000000E+00
  0.00000000E+00  0.00000000E+00  0.00000000E+00
  0.00000000E+00  0.00000000E+00  0.00000000E+00
  0.00000000E+00  0.00000000E+00  0.00000000E+00
  0.00000000E+00  0.00000000E+00  0.00000000E+00
  0.00000000E+00  0.00000000E+00  0.00000000E+00
  0.00000000E+00  0.00000000E+00  0.00000000E+00
  0.00000000E+00  0.00000000E+00  0.00000000E+00
  0.00000000E+00  0.00000000E+00  0.00000000E+00
  0.00000000E+00  0.00000000E+00  0.00000000E+00
