C O H                                   
   1.00000000000000     
    40.0000000000000000    0.0000000000000000    0.0000000000000000
     0.0000000000000000   40.0000000000000000    0.0000000000000000
     0.0000000000000000    0.0000000000000000   40.0000000000000000
   C    O    H 
     8     1     6
Selective dynamics
Direct
  0.5168653589760055  0.4607130294584110  0.5000000000000000   T   T   T
  0.5478498726519661  0.4783214000128950  0.5000000000000000   T   T   T
  0.5496176436611648  0.5134680008347701  0.5000000000000000   T   T   T
  0.5208019498667440  0.5327744157690191  0.5000000000000000   T   T   T
  0.4893793300999079  0.5158592056132960  0.5000000000000000   T   T   T
  0.4889130898935221  0.4803484533041811  0.5000000000000000   T   T   T
  0.4367368133958536  0.4965481939343803  0.5000000000000000   T   T   T
  0.4558325998763308  0.5261610676868429  0.5000000000000000   T   T   T
  0.4557966370797075  0.4691218690482017  0.5000000000000000   T   T   T
  0.4457251542051779  0.5513427159188993  0.5000000000000000   T   T   T
  0.4098745871844756  0.4925216027261357  0.5000009999999975   T   T   T
  0.5218335161199690  0.5599872508357180  0.5000000000000000   T   T   T
  0.5740316952570979  0.5254916161924115  0.5000000000000000   T   T   T
  0.5709101768115232  0.4638142966479606  0.5000000000000000   T   T   T
  0.5158305749205496  0.4335258820168733  0.5000000000000000   T   T   T
 
  0.00000000E+00  0.00000000E+00  0.00000000E+00
  0.00000000E+00  0.00000000E+00  0.00000000E+00
  0.00000000E+00  0.00000000E+00  0.00000000E+00
  0.00000000E+00  0.00000000E+00  0.00000000E+00
  0.00000000E+00  0.00000000E+00  0.00000000E+00
  0.00000000E+00  0.00000000E+00  0.00000000E+00
  0.00000000E+00  0.00000000E+00  0.00000000E+00
  0.00000000E+00  0.00000000E+00  0.00000000E+00
  0.00000000E+00  0.00000000E+00  0.00000000E+00
  0.00000000E+00  0.00000000E+00  0.00000000E+00
  0.00000000E+00  0.00000000E+00  0.00000000E+00
  0.00000000E+00  0.00000000E+00  0.00000000E+00
  0.00000000E+00  0.00000000E+00  0.00000000E+00
  0.00000000E+00  0.00000000E+00  0.00000000E+00
  0.00000000E+00  0.00000000E+00  0.00000000E+00
