C O H                                   
   1.00000000000000     
    40.0000000000000000    0.0000000000000000    0.0000000000000000
     0.0000000000000000   40.0000000000000000    0.0000000000000000
     0.0000000000000000    0.0000000000000000   40.0000000000000000
   C    O    H 
     8     1     6
Selective dynamics
Direct
  0.5175784035210583  0.4608740268796533  0.5000000000000000   T   T   T
  0.5481377482537707  0.4778439792356078  0.5000000000000000   T   T   T
  0.5495191349776490  0.5130703953615170  0.5000000000000000   T   T   T
  0.5205097847243393  0.5324429282405417  0.5000000000000000   T   T   T
  0.4894425665622625  0.5159788148706239  0.5000000000000000   T   T   T
  0.4890104875443925  0.4806733163610218  0.5000000000000000   T   T   T
  0.4364767964648917  0.4974855272276571  0.5000000000000000   T   T   T
  0.4548291460192400  0.5261409000466535  0.5000000000000000   T   T   T
  0.4564878849796841  0.4692183349363079  0.5000000000000000   T   T   T
  0.4449351239207489  0.5514190104096479  0.5000000000000000   T   T   T
  0.4097924235527903  0.4926133347187746  0.5000009999999975   T   T   T
  0.5219340940486557  0.5596808075674190  0.5000000000000000   T   T   T
  0.5738771449717653  0.5253549049932171  0.5000000000000000   T   T   T
  0.5713430419057948  0.4635294961538496  0.5000000000000000   T   T   T
  0.5161252185529593  0.4336732229975172  0.5000000000000000   T   T   T
 
  0.00000000E+00  0.00000000E+00  0.00000000E+00
  0.00000000E+00  0.00000000E+00  0.00000000E+00
  0.00000000E+00  0.00000000E+00  0.00000000E+00
  0.00000000E+00  0.00000000E+00  0.00000000E+00
  0.00000000E+00  0.00000000E+00  0.00000000E+00
  0.00000000E+00  0.00000000E+00  0.00000000E+00
  0.00000000E+00  0.00000000E+00  0.00000000E+00
  0.00000000E+00  0.00000000E+00  0.00000000E+00
  0.00000000E+00  0.00000000E+00  0.00000000E+00
  0.00000000E+00  0.00000000E+00  0.00000000E+00
  0.00000000E+00  0.00000000E+00  0.00000000E+00
  0.00000000E+00  0.00000000E+00  0.00000000E+00
  0.00000000E+00  0.00000000E+00  0.00000000E+00
  0.00000000E+00  0.00000000E+00  0.00000000E+00
  0.00000000E+00  0.00000000E+00  0.00000000E+00
