C H                                     
   1.00000000000000     
    40.0000000000000000    0.0000000000000000    0.0000000000000000
     0.0000000000000000   40.0000000000000000    0.0000000000000000
     0.0000000000000000    0.0000000000000000   40.0000000000000000
   C    H 
    10    12
Selective dynamics
Direct
  0.4947719857492103  0.4749722559957661  0.5001082809340858   T   T   T
  0.4602575326953726  0.4708134434066906  0.5001874643118072   T   T   T
  0.4384212509744927  0.4983890249234832  0.5001900844184277   T   T   T
  0.4527217200373599  0.5303524614422415  0.5002098370325712   T   T   T
  0.4873601687456741  0.5346302018509874  0.5001203554407425   T   T   T
  0.5092812247509499  0.5071208538983072  0.5000546211811994   T   T   T
  0.5454602323307043  0.5130572130143207  0.5000098890128513   T   T   T
  0.5700409807639559  0.4900778446230305  0.5000230426872321   T   T   T
  0.6065489811580704  0.4980515823879017  0.4999570254222334   T   T   T
  0.4011028024158421  0.4934613387906097  0.4997672693923434   T   T   T
  0.6191412057505232  0.4872612761388666  0.5219600160548836   T   T   T
  0.6190712986644655  0.4871783044546234  0.4779536097847483   T   T   T
  0.6110270456843310  0.5251399740908980  0.4998965951162262   T   T   T
  0.5636681764143887  0.4634542856293038  0.5000812555741661   T   T   T
  0.5527797277677706  0.5394833237037204  0.4999574825836604   T   T   T
  0.4977892009064604  0.5598708195038427  0.5001560777362783   T   T   T
  0.4364496313307455  0.5522854972358360  0.5003178921503633   T   T   T
  0.3877844027710466  0.5168697632558903  0.5050665709216702   T   T   T
  0.3925613169660380  0.4844132070423299  0.4752040615412412   T   T   T
  0.3932233823917244  0.4747375286802864  0.5182966878120254   T   T   T
  0.4498463630009937  0.4455554344803403  0.5003176584766891   T   T   T
  0.5106913687298658  0.4528253654507353  0.5001652224145303   T   T   T
 
  0.00000000E+00  0.00000000E+00  0.00000000E+00
  0.00000000E+00  0.00000000E+00  0.00000000E+00
  0.00000000E+00  0.00000000E+00  0.00000000E+00
  0.00000000E+00  0.00000000E+00  0.00000000E+00
  0.00000000E+00  0.00000000E+00  0.00000000E+00
  0.00000000E+00  0.00000000E+00  0.00000000E+00
  0.00000000E+00  0.00000000E+00  0.00000000E+00
  0.00000000E+00  0.00000000E+00  0.00000000E+00
  0.00000000E+00  0.00000000E+00  0.00000000E+00
  0.00000000E+00  0.00000000E+00  0.00000000E+00
  0.00000000E+00  0.00000000E+00  0.00000000E+00
  0.00000000E+00  0.00000000E+00  0.00000000E+00
  0.00000000E+00  0.00000000E+00  0.00000000E+00
  0.00000000E+00  0.00000000E+00  0.00000000E+00
  0.00000000E+00  0.00000000E+00  0.00000000E+00
  0.00000000E+00  0.00000000E+00  0.00000000E+00
  0.00000000E+00  0.00000000E+00  0.00000000E+00
  0.00000000E+00  0.00000000E+00  0.00000000E+00
  0.00000000E+00  0.00000000E+00  0.00000000E+00
  0.00000000E+00  0.00000000E+00  0.00000000E+00
  0.00000000E+00  0.00000000E+00  0.00000000E+00
  0.00000000E+00  0.00000000E+00  0.00000000E+00
