!B3LYP freq aug-cc-pVTZ d3 TightSCF SlowConv RIJCOSX defgrid2

%pal
nprocs 12

end

%scf
MaxIter 1500
end

%maxcore 5000

!CPCM
%cpcm smd true
SMDsolvent "MeCN"
surfacetype gepol_ses
rsolv 2.19
end 

* xyz 1 2
C          -0.22280535121287     -1.23815032712665     -0.03903011100854
C           1.14384937680254     -1.22300872632982      0.00228964610824
C           1.83721415628454     -0.00003965810509      0.02318328999068
C           1.14388984048597      1.22295243045412      0.00229106114393
C          -0.22276412650644      1.23814600667632     -0.03903981759760
C          -0.93434977499902      0.00001011040711     -0.05988930211600
N          -2.25769821633956      0.00003063556185     -0.09822839582730
H          -2.78314848309903      0.86418816351741     -0.11500059194755
H          -2.78317854943666     -0.86410966704791     -0.11498074894141
H          -0.78035174245251      2.16364706217355     -0.05615231538775
H           1.69517008937667      2.15143750995559      0.01891199337833
H           2.91707742765604     -0.00005696533333      0.05500338229159
H           1.69509347753257     -2.15151614007778      0.01890320457904
H          -0.78042982409224     -2.16363043472537     -0.05613649466568
*
