C Cl O H                                
   1.00000000000000     
    40.0000000000000000    0.0000000000000000    0.0000000000000000
     0.0000000000000000   40.0000000000000000    0.0000000000000000
     0.0000000000000000    0.0000000000000000   40.0000000000000000
   C    Cl   O    H 
     7     1     1     5
Selective dynamics
Direct
  0.4971149481802531  0.4689150099985604  0.4999874421734877   T   T   T
  0.4631206985260569  0.4762441564246358  0.4999827874212258   T   T   T
  0.4523734906248699  0.5095576922854393  0.4999957526705567   T   T   T
  0.4757334445678814  0.5355655913663708  0.5000092540084383   T   T   T
  0.5098428778131874  0.5284649434148748  0.5000140823873043   T   T   T
  0.5207462940780059  0.4950678414253549  0.5000020327784406   T   T   T
  0.5562391009230998  0.4852059243957494  0.5000036817151743   T   T   T
  0.5860024452748431  0.5194286844046014  0.5000125531311509   T   T   T
  0.5670989009637200  0.4570078738015132  0.4999979568686797   T   T   T
  0.5279850599328074  0.5487328146629062  0.5000249832030088   T   T   T
  0.4673444296434411  0.5614696749671236  0.5000213028276631   T   T   T
  0.4257244156822473  0.5152323845653706  0.4999955479282049   T   T   T
  0.4449024908319714  0.4559996391023788  0.4999735446829757   T   T   T
  0.5057704029576109  0.4431087691851177  0.4999790782036819   T   T   T
 
  0.00000000E+00  0.00000000E+00  0.00000000E+00
  0.00000000E+00  0.00000000E+00  0.00000000E+00
  0.00000000E+00  0.00000000E+00  0.00000000E+00
  0.00000000E+00  0.00000000E+00  0.00000000E+00
  0.00000000E+00  0.00000000E+00  0.00000000E+00
  0.00000000E+00  0.00000000E+00  0.00000000E+00
  0.00000000E+00  0.00000000E+00  0.00000000E+00
  0.00000000E+00  0.00000000E+00  0.00000000E+00
  0.00000000E+00  0.00000000E+00  0.00000000E+00
  0.00000000E+00  0.00000000E+00  0.00000000E+00
  0.00000000E+00  0.00000000E+00  0.00000000E+00
  0.00000000E+00  0.00000000E+00  0.00000000E+00
  0.00000000E+00  0.00000000E+00  0.00000000E+00
  0.00000000E+00  0.00000000E+00  0.00000000E+00
