C N O H                                 
   1.00000000000000     
    25.0000000000000000    0.0000000000000000    0.0000000000000000
     0.0000000000000000   25.0000000000000000    0.0000000000000000
     0.0000000000000000    0.0000000000000000   25.0000000000000000
   C    N    O    H 
     9     1     1    16
Selective dynamics
Direct
  0.5150867469870228  0.5260503258627665  0.4579115044292655   T   T   T
  0.5290238792291820  0.4698413070892096  0.4368121391508558   T   T   T
  0.5367530548050812  0.4296775182423537  0.4806172256835600   T   T   T
  0.5132645916546120  0.4348738544177383  0.5283637504151236   T   T   T
  0.4753782577732823  0.4793364804974163  0.5432050403502499   T   T   T
  0.5646627965188941  0.5529483394902723  0.4829335330424745   T   T   T
  0.4932570310495908  0.5605619631739639  0.4123268043151458   T   T   T
  0.4932482737703373  0.5064050441068467  0.5957559176439857   T   T   T
  0.4187627338013212  0.4557145474140814  0.5500377611223622   T   T   T
  0.4725294169397963  0.5205169828123463  0.4997567843843129   T   T   T
  0.4405938557584991  0.5603418306404816  0.5077884930941975   T   T   T
  0.5654437663713063  0.4730449003204092  0.4122846880359932   T   T   T
  0.4971419570681183  0.4562514370670164  0.4094199864161864   T   T   T
  0.5624131321145313  0.3951720396625873  0.4726876718764940   T   T   T
  0.5194683333867309  0.4050357583419830  0.5596930814720295   T   T   T
  0.5532136386184267  0.5905041546942013  0.5026525022988928   T   T   T
  0.5840063080600432  0.5266705605044140  0.5123091179964033   T   T   T
  0.5938417972894224  0.5620381105058094  0.4513164329713435   T   T   T
  0.4855209379837579  0.6016207607963973  0.4255783170550458   T   T   T
  0.4559605210197007  0.5437229750977829  0.3963230218869183   T   T   T
  0.5230942702063107  0.5615963321373216  0.3800874762099397   T   T   T
  0.4661925446996392  0.5396265364193499  0.6053799125117927   T   T   T
  0.5342420451164864  0.5217878326512657  0.5925808128032188   T   T   T
  0.4919025054023468  0.4771207614744599  0.6284885228290870   T   T   T
  0.3902295269743204  0.4875050864546956  0.5602102113889338   T   T   T
  0.4057270090070106  0.4359619488011755  0.5130218187520534   T   T   T
  0.4190430683942238  0.4260726113236606  0.5824564718641432   T   T   T
 
  0.00000000E+00  0.00000000E+00  0.00000000E+00
  0.00000000E+00  0.00000000E+00  0.00000000E+00
  0.00000000E+00  0.00000000E+00  0.00000000E+00
  0.00000000E+00  0.00000000E+00  0.00000000E+00
  0.00000000E+00  0.00000000E+00  0.00000000E+00
  0.00000000E+00  0.00000000E+00  0.00000000E+00
  0.00000000E+00  0.00000000E+00  0.00000000E+00
  0.00000000E+00  0.00000000E+00  0.00000000E+00
  0.00000000E+00  0.00000000E+00  0.00000000E+00
  0.00000000E+00  0.00000000E+00  0.00000000E+00
  0.00000000E+00  0.00000000E+00  0.00000000E+00
  0.00000000E+00  0.00000000E+00  0.00000000E+00
  0.00000000E+00  0.00000000E+00  0.00000000E+00
  0.00000000E+00  0.00000000E+00  0.00000000E+00
  0.00000000E+00  0.00000000E+00  0.00000000E+00
  0.00000000E+00  0.00000000E+00  0.00000000E+00
  0.00000000E+00  0.00000000E+00  0.00000000E+00
  0.00000000E+00  0.00000000E+00  0.00000000E+00
  0.00000000E+00  0.00000000E+00  0.00000000E+00
  0.00000000E+00  0.00000000E+00  0.00000000E+00
  0.00000000E+00  0.00000000E+00  0.00000000E+00
  0.00000000E+00  0.00000000E+00  0.00000000E+00
  0.00000000E+00  0.00000000E+00  0.00000000E+00
  0.00000000E+00  0.00000000E+00  0.00000000E+00
  0.00000000E+00  0.00000000E+00  0.00000000E+00
  0.00000000E+00  0.00000000E+00  0.00000000E+00
  0.00000000E+00  0.00000000E+00  0.00000000E+00
