C Cl O H                                
   1.00000000000000     
    40.0000000000000000    0.0000000000000000    0.0000000000000000
     0.0000000000000000   40.0000000000000000    0.0000000000000000
     0.0000000000000000    0.0000000000000000   40.0000000000000000
   C    Cl   O    H 
     7     1     1     5
Selective dynamics
Direct
  0.4971121628389028  0.4689446028976292  0.4999868723440102   T   T   T
  0.4631147938020135  0.4762607995177532  0.4999817225424934   T   T   T
  0.4523406258148910  0.5095602049531820  0.4999949715512315   T   T   T
  0.4757107203256368  0.5355582733422750  0.5000111176347914   T   T   T
  0.5098203428112527  0.5284531430608936  0.5000141264688338   T   T   T
  0.5207416606754833  0.4950724591311086  0.5000028858852730   T   T   T
  0.5563342214549252  0.4851507634378009  0.5000034502729704   T   T   T
  0.5860179085905770  0.5195180927716692  0.5000120272180553   T   T   T
  0.5670263947110357  0.4569424588072692  0.4999979537278065   T   T   T
  0.5280368388535166  0.5486586792858219  0.5000252467084607   T   T   T
  0.4673175782034491  0.5614819836250931  0.5000209785854679   T   T   T
  0.4256693925318729  0.5152373020120535  0.4999956725901669   T   T   T
  0.4448875901718381  0.4560038780345295  0.4999734486191016   T   T   T
  0.5058687692146009  0.4431583591229256  0.4999795258513373   T   T   T
 
  0.00000000E+00  0.00000000E+00  0.00000000E+00
  0.00000000E+00  0.00000000E+00  0.00000000E+00
  0.00000000E+00  0.00000000E+00  0.00000000E+00
  0.00000000E+00  0.00000000E+00  0.00000000E+00
  0.00000000E+00  0.00000000E+00  0.00000000E+00
  0.00000000E+00  0.00000000E+00  0.00000000E+00
  0.00000000E+00  0.00000000E+00  0.00000000E+00
  0.00000000E+00  0.00000000E+00  0.00000000E+00
  0.00000000E+00  0.00000000E+00  0.00000000E+00
  0.00000000E+00  0.00000000E+00  0.00000000E+00
  0.00000000E+00  0.00000000E+00  0.00000000E+00
  0.00000000E+00  0.00000000E+00  0.00000000E+00
  0.00000000E+00  0.00000000E+00  0.00000000E+00
  0.00000000E+00  0.00000000E+00  0.00000000E+00
