C H                                     
   1.00000000000000     
    40.0000000000000000    0.0000000000000000    0.0000000000000000
     0.0000000000000000   40.0000000000000000    0.0000000000000000
     0.0000000000000000    0.0000000000000000   40.0000000000000000
   C    H 
    10    12
Selective dynamics
Direct
  0.5270366451883800  0.4682004062149409  0.5000055981592504   T   T   T
  0.5359315956963696  0.5029782726159117  0.5000035153588038   T   T   T
  0.5099704839043612  0.5272439579120037  0.5000025156601523   T   T   T
  0.4765919151610798  0.5184143077797174  0.4999996651261029   T   T   T
  0.4680911829555427  0.4833927598239323  0.5000010881196257   T   T   T
  0.4939439444530827  0.4590757572924578  0.5000054505380197   T   T   T
  0.4326023385274114  0.4727798305702203  0.4999995829125540   T   T   T
  0.4497979772663777  0.5444462696541983  0.4999980241203674   T   T   T
  0.5697851083595692  0.5143830167855674  0.5000018060859472   T   T   T
  0.5975955933436969  0.4943554319574598  0.4999917505692852   T   T   T
  0.4870632284685419  0.4327253011132306  0.5000074981643209   T   T   T
  0.4299048130282705  0.4455726753454550  0.5000018752510692   T   T   T
  0.4194314268064024  0.4831768810112165  0.4781336084805913   T   T   T
  0.4194287004091953  0.4831804183083829  0.5218623498731699   T   T   T
  0.4335317514357319  0.5418472764063027  0.5220195026070141   T   T   T
  0.4335300735979936  0.5418427679670882  0.4779772734873071   T   T   T
  0.4605101705067470  0.5696241935148048  0.4999950360932737   T   T   T
  0.5169169803750921  0.5535996182701181  0.5000012692395205   T   T   T
  0.5961826603145668  0.4671764002024807  0.4999844942390471   T   T   T
  0.6224231376049859  0.5054917295125175  0.4999921803579644   T   T   T
  0.5733767125016422  0.5414388699767455  0.5000083819474295   T   T   T
  0.5463525600949615  0.4490548577652663  0.5000075336091914   T   T   T
 
  0.00000000E+00  0.00000000E+00  0.00000000E+00
  0.00000000E+00  0.00000000E+00  0.00000000E+00
  0.00000000E+00  0.00000000E+00  0.00000000E+00
  0.00000000E+00  0.00000000E+00  0.00000000E+00
  0.00000000E+00  0.00000000E+00  0.00000000E+00
  0.00000000E+00  0.00000000E+00  0.00000000E+00
  0.00000000E+00  0.00000000E+00  0.00000000E+00
  0.00000000E+00  0.00000000E+00  0.00000000E+00
  0.00000000E+00  0.00000000E+00  0.00000000E+00
  0.00000000E+00  0.00000000E+00  0.00000000E+00
  0.00000000E+00  0.00000000E+00  0.00000000E+00
  0.00000000E+00  0.00000000E+00  0.00000000E+00
  0.00000000E+00  0.00000000E+00  0.00000000E+00
  0.00000000E+00  0.00000000E+00  0.00000000E+00
  0.00000000E+00  0.00000000E+00  0.00000000E+00
  0.00000000E+00  0.00000000E+00  0.00000000E+00
  0.00000000E+00  0.00000000E+00  0.00000000E+00
  0.00000000E+00  0.00000000E+00  0.00000000E+00
  0.00000000E+00  0.00000000E+00  0.00000000E+00
  0.00000000E+00  0.00000000E+00  0.00000000E+00
  0.00000000E+00  0.00000000E+00  0.00000000E+00
  0.00000000E+00  0.00000000E+00  0.00000000E+00
