!B3LYP aug-cc-pVTZ d3 TightSCF SlowConv RIJCOSX defgrid2
 
%pal
nprocs 4
end
 
%scf
MaxIter 1500
end
 
%maxcore 3000
 
!CPCM
%cpcm smd true
SMDsolvent "MeCN"
surfacetype gepol_ses
rsolv 2.19
end 
 
* xyz -1 2
C          -0.46059128201799      1.20494017119812      0.00001211596921
C           0.92271322931352      1.21537673965483      0.00007247103149
C           1.63885056458078      0.00584757553838      0.00005340465348
C           0.94016898670995     -1.22082416695804     -0.00001729460884
C          -0.43745517805739     -1.22871797254679     -0.00008369129513
C          -1.21082253995963     -0.01928165729328     -0.00007938241516
C          -2.64176417107169     -0.09933130049804     -0.00014945388498
O          -3.27680801972250     -1.18193238288940     -0.00022292736286
C          -3.42795564044194      1.21049531549301     -0.00017211433464
H          -3.21403956731584      1.83831096883377      0.88847865430575
H          -3.21389493669869      1.83838205326155     -0.88873743958169
H          -4.50069805080380      0.95600695488766     -0.00026718717856
H          -0.99549954367814     -2.16941515727402     -0.00014058350972
H           1.50562929532190     -2.15884116459823     -0.00002292839518
Cl          3.39541668285857      0.02068681811563      0.00014426998260
H           1.47138203008123      2.16312523531408      0.00014024216876
H          -0.98755245909833      2.16458456976078      0.00003664445548
*
