C H                                     
   1.00000000000000     
    40.0000000000000000    0.0000000000000000    0.0000000000000000
     0.0000000000000000   40.0000000000000000    0.0000000000000000
     0.0000000000000000    0.0000000000000000   40.0000000000000000
   C    H 
    10    12
Selective dynamics
Direct
  0.4951048473083303  0.4744953758819022  0.5000998230216368   T   T   T
  0.4611292160443362  0.4705265511373959  0.5001760350239762   T   T   T
  0.4394374739771932  0.4985505740618971  0.5002743570967590   T   T   T
  0.4533790329748904  0.5309847734272558  0.5002263347563850   T   T   T
  0.4873557212709175  0.5353105880021254  0.5000952743710597   T   T   T
  0.5093258855893221  0.5072465940510790  0.5000634114734672   T   T   T
  0.5441048931484044  0.5135661698124602  0.5000153797875483   T   T   T
  0.5690903083053930  0.4897752186198381  0.5000190683484256   T   T   T
  0.6047899476678327  0.4981917595309734  0.4999591523004968   T   T   T
  0.4026911469212004  0.4936032208709795  0.5000045325976853   T   T   T
  0.6169585584417336  0.4866625717316257  0.5216693627210859   T   T   T
  0.6169004495405764  0.4865873995690830  0.4782561546151544   T   T   T
  0.6093743375818292  0.5250109572569988  0.4999052753777370   T   T   T
  0.5626716504052872  0.4634204815348785  0.5000612605584367   T   T   T
  0.5516300186969528  0.5396745791668844  0.4999647531872266   T   T   T
  0.4981247626865610  0.5601672389684057  0.5000966171087365   T   T   T
  0.4368794453346933  0.5524536600312929  0.5003433899323103   T   T   T
  0.3892361062987142  0.5167195907205021  0.5049990009157300   T   T   T
  0.3949887065889455  0.4842570637692388  0.4754031688254911   T   T   T
  0.3953607629756521  0.4744354752939984  0.5180329962418172   T   T   T
  0.4503501556987696  0.4456723149811588  0.5002478412087481   T   T   T
  0.5111165725424714  0.4526888415800444  0.5000878105300628   T   T   T
 
  0.00000000E+00  0.00000000E+00  0.00000000E+00
  0.00000000E+00  0.00000000E+00  0.00000000E+00
  0.00000000E+00  0.00000000E+00  0.00000000E+00
  0.00000000E+00  0.00000000E+00  0.00000000E+00
  0.00000000E+00  0.00000000E+00  0.00000000E+00
  0.00000000E+00  0.00000000E+00  0.00000000E+00
  0.00000000E+00  0.00000000E+00  0.00000000E+00
  0.00000000E+00  0.00000000E+00  0.00000000E+00
  0.00000000E+00  0.00000000E+00  0.00000000E+00
  0.00000000E+00  0.00000000E+00  0.00000000E+00
  0.00000000E+00  0.00000000E+00  0.00000000E+00
  0.00000000E+00  0.00000000E+00  0.00000000E+00
  0.00000000E+00  0.00000000E+00  0.00000000E+00
  0.00000000E+00  0.00000000E+00  0.00000000E+00
  0.00000000E+00  0.00000000E+00  0.00000000E+00
  0.00000000E+00  0.00000000E+00  0.00000000E+00
  0.00000000E+00  0.00000000E+00  0.00000000E+00
  0.00000000E+00  0.00000000E+00  0.00000000E+00
  0.00000000E+00  0.00000000E+00  0.00000000E+00
  0.00000000E+00  0.00000000E+00  0.00000000E+00
  0.00000000E+00  0.00000000E+00  0.00000000E+00
  0.00000000E+00  0.00000000E+00  0.00000000E+00
