C N H                                   
   1.00000000000000     
    40.0000000000000000    0.0000000000000000    0.0000000000000000
     0.0000000000000000   40.0000000000000000    0.0000000000000000
     0.0000000000000000    0.0000000000000000   40.0000000000000000
   C    N    H 
     9     2    16
Selective dynamics
Direct
  0.5680233653045467  0.4769620147706681  0.5110663405274740   T   T   T
  0.5121848508750270  0.4792004008175794  0.4913805437075329   T   T   T
  0.4811367352945956  0.5329057102506281  0.4848372538094693   T   T   T
  0.4536210481387509  0.5288416307001053  0.5113474552042113   T   T   T
  0.4325550761284224  0.4972094013797860  0.5068216923203275   T   T   T
  0.4521870702051305  0.4643385899614146  0.5078163420726464   T   T   T
  0.4802194549379161  0.4614860055087430  0.4814844076913102   T   T   T
  0.5405483162988508  0.5321537356231761  0.5035960162553461   T   T   T
  0.5723955195585843  0.5122977776998032  0.4972043095925214   T   T   T
  0.5372876632559871  0.4605793384148089  0.5001823284863380   T   T   T
  0.5116103866988924  0.5137350490790628  0.4909964369402767   T   T   T
  0.4709791466628067  0.4706256136397644  0.4571560446828864   T   T   T
  0.4871375014977279  0.4351678144265881  0.4781896641784655   T   T   T
  0.4631604264730785  0.4606004809509487  0.5328300360486047   T   T   T
  0.4345291829013150  0.4435766098474677  0.5039708207727418   T   T   T
  0.4128360741887501  0.4965548288405384  0.5260300654564124   T   T   T
  0.4195208731925665  0.4989106662765217  0.4825326768831316   T   T   T
  0.4652558808604011  0.5292690273617356  0.5363380433046728   T   T   T
  0.4370389083112824  0.5508006888706328  0.5100294009587811   T   T   T
  0.4709128498175830  0.5267623881434660  0.4599579005958175   T   T   T
  0.4887921214448778  0.5592574036943215  0.4835942082636970   T   T   T
  0.5939041845749023  0.5249753843590905  0.5087237012653146   T   T   T
  0.5770392260078211  0.5110949422791436  0.4700928974614516   T   T   T
  0.5414830551914029  0.5564881262129034  0.4907881201255806   T   T   T
  0.5378008861215149  0.5373243372943999  0.5306473810388989   T   T   T
  0.5684982174892985  0.4777216900035710  0.5386992624751767   T   T   T
  0.5893409785679846  0.4611613435931289  0.5036866498809126   T   T   T
 
  0.00000000E+00  0.00000000E+00  0.00000000E+00
  0.00000000E+00  0.00000000E+00  0.00000000E+00
  0.00000000E+00  0.00000000E+00  0.00000000E+00
  0.00000000E+00  0.00000000E+00  0.00000000E+00
  0.00000000E+00  0.00000000E+00  0.00000000E+00
  0.00000000E+00  0.00000000E+00  0.00000000E+00
  0.00000000E+00  0.00000000E+00  0.00000000E+00
  0.00000000E+00  0.00000000E+00  0.00000000E+00
  0.00000000E+00  0.00000000E+00  0.00000000E+00
  0.00000000E+00  0.00000000E+00  0.00000000E+00
  0.00000000E+00  0.00000000E+00  0.00000000E+00
  0.00000000E+00  0.00000000E+00  0.00000000E+00
  0.00000000E+00  0.00000000E+00  0.00000000E+00
  0.00000000E+00  0.00000000E+00  0.00000000E+00
  0.00000000E+00  0.00000000E+00  0.00000000E+00
  0.00000000E+00  0.00000000E+00  0.00000000E+00
  0.00000000E+00  0.00000000E+00  0.00000000E+00
  0.00000000E+00  0.00000000E+00  0.00000000E+00
  0.00000000E+00  0.00000000E+00  0.00000000E+00
  0.00000000E+00  0.00000000E+00  0.00000000E+00
  0.00000000E+00  0.00000000E+00  0.00000000E+00
  0.00000000E+00  0.00000000E+00  0.00000000E+00
  0.00000000E+00  0.00000000E+00  0.00000000E+00
  0.00000000E+00  0.00000000E+00  0.00000000E+00
  0.00000000E+00  0.00000000E+00  0.00000000E+00
  0.00000000E+00  0.00000000E+00  0.00000000E+00
  0.00000000E+00  0.00000000E+00  0.00000000E+00
