C N O H                                 
   1.00000000000000     
    40.0000000000000000    0.0000000000000000    0.0000000000000000
     0.0000000000000000   40.0000000000000000    0.0000000000000000
     0.0000000000000000    0.0000000000000000   40.0000000000000000
   C    N    O    H 
     7     1     1     7
Selective dynamics
Direct
  0.5160149029533172  0.4677045294529530  0.5000000000000000   T   T   T
  0.5497184168592427  0.4741421416391900  0.5000000000000000   T   T   T
  0.5611075991842089  0.5074274851526247  0.5000000000000000   T   T   T
  0.5385277816269518  0.5343804763774451  0.5000000000000000   T   T   T
  0.5047568609385701  0.5284164956167352  0.5000000000000000   T   T   T
  0.4928578180000756  0.4947335705087151  0.5000000000000000   T   T   T
  0.4584649900902473  0.4869130757343917  0.5000000000000000   T   T   T
  0.4361479779386207  0.5113864520802359  0.5000000000000000   T   T   T
  0.4052695966195494  0.4988203527655876  0.5000009999999975   T   T   T
  0.3901143934265966  0.5180299648394183  0.5000009999999975   T   T   T
  0.4501389234012688  0.4610326946517712  0.5000000000000000   T   T   T
  0.4869834592137009  0.5487951758392531  0.5000000000000000   T   T   T
  0.5479393531679153  0.5597343261140260  0.5000000000000000   T   T   T
  0.5877358008655831  0.5123522625588456  0.4999990000000025   T   T   T
  0.5675726218125744  0.4538256606946022  0.4999990000000025   T   T   T
  0.5066505039015820  0.4423053359742057  0.5000000000000000   T   T   T
 
  0.00000000E+00  0.00000000E+00  0.00000000E+00
  0.00000000E+00  0.00000000E+00  0.00000000E+00
  0.00000000E+00  0.00000000E+00  0.00000000E+00
  0.00000000E+00  0.00000000E+00  0.00000000E+00
  0.00000000E+00  0.00000000E+00  0.00000000E+00
  0.00000000E+00  0.00000000E+00  0.00000000E+00
  0.00000000E+00  0.00000000E+00  0.00000000E+00
  0.00000000E+00  0.00000000E+00  0.00000000E+00
  0.00000000E+00  0.00000000E+00  0.00000000E+00
  0.00000000E+00  0.00000000E+00  0.00000000E+00
  0.00000000E+00  0.00000000E+00  0.00000000E+00
  0.00000000E+00  0.00000000E+00  0.00000000E+00
  0.00000000E+00  0.00000000E+00  0.00000000E+00
  0.00000000E+00  0.00000000E+00  0.00000000E+00
  0.00000000E+00  0.00000000E+00  0.00000000E+00
  0.00000000E+00  0.00000000E+00  0.00000000E+00
