C N H                                   
   1.00000000000000     
    40.0000000000000000    0.0000000000000000    0.0000000000000000
     0.0000000000000000   40.0000000000000000    0.0000000000000000
     0.0000000000000000    0.0000000000000000   40.0000000000000000
   C    N    H 
     6     1     7
Selective dynamics
Direct
  0.4949734628309548  0.4689121360277458  0.4999893617911186   T   T   T
  0.5293868702618832  0.4692988696480990  0.5009978968901643   T   T   T
  0.5468379254210713  0.4999990000000025  0.5013992008096305   T   T   T
  0.5293868702618832  0.5307001303518966  0.5009978968901643   T   T   T
  0.4949744628309523  0.5310878639722540  0.4999893617911186   T   T   T
  0.4770382679850063  0.5000000000000000  0.4993428827749690   T   T   T
  0.4437466444944318  0.5000009999999975  0.4981156471366895   T   T   T
  0.4305315230658512  0.5217872556866471  0.4975848882351387   T   T   T
  0.4305305230658537  0.4782147443133549  0.4975848882351387   T   T   T
  0.4810067909266034  0.5544669330011137  0.4996005404965959   T   T   T
  0.5432529547008020  0.5541346696708710  0.5014207364954155   T   T   T
  0.5740759585272748  0.4999990000000025  0.5019564214618573   T   T   T
  0.5432519547008046  0.4458643303291175  0.5014207364954155   T   T   T
  0.4810047909266085  0.4455330669988865  0.4996005404965959   T   T   T
 
  0.00000000E+00  0.00000000E+00  0.00000000E+00
  0.00000000E+00  0.00000000E+00  0.00000000E+00
  0.00000000E+00  0.00000000E+00  0.00000000E+00
  0.00000000E+00  0.00000000E+00  0.00000000E+00
  0.00000000E+00  0.00000000E+00  0.00000000E+00
  0.00000000E+00  0.00000000E+00  0.00000000E+00
  0.00000000E+00  0.00000000E+00  0.00000000E+00
  0.00000000E+00  0.00000000E+00  0.00000000E+00
  0.00000000E+00  0.00000000E+00  0.00000000E+00
  0.00000000E+00  0.00000000E+00  0.00000000E+00
  0.00000000E+00  0.00000000E+00  0.00000000E+00
  0.00000000E+00  0.00000000E+00  0.00000000E+00
  0.00000000E+00  0.00000000E+00  0.00000000E+00
  0.00000000E+00  0.00000000E+00  0.00000000E+00
