C N O H                                 
   1.00000000000000     
    40.0000000000000000    0.0000000000000000    0.0000000000000000
     0.0000000000000000   40.0000000000000000    0.0000000000000000
     0.0000000000000000    0.0000000000000000   40.0000000000000000
   C    N    O    H 
    10     1     1    13
Selective dynamics
Direct
  0.4661732916544707  0.5306788933926398  0.5029901578573117   T   T   T
  0.4328651831525860  0.5332780841651825  0.4939139723280377   T   T   T
  0.4129656665755732  0.5045630117133371  0.4903962896465188   T   T   T
  0.4268204810109708  0.4728659283191092  0.4963804251898836   T   T   T
  0.4601528630970435  0.4696234309054148  0.5051272410395029   T   T   T
  0.4806879542635798  0.4985769172779015  0.5081863580310042   T   T   T
  0.5332429482769570  0.4654732288411338  0.5080103095544288   T   T   T
  0.5563483788754056  0.4743486735198843  0.4780463024938157   T   T   T
  0.5591726804786532  0.5306680328321818  0.4948369885072026   T   T   T
  0.5356467054450889  0.5231783146648468  0.5247090875325782   T   T   T
  0.5140122522628161  0.4953032613284520  0.5159897351590530   T   T   T
  0.5777311465729795  0.5014722418893243  0.4864475758594722   T   T   T
  0.5486057354839744  0.4585712173426799  0.5296690652457059   T   T   T
  0.5172083013885427  0.4445940824065460  0.5008129019654817   T   T   T
  0.5407146824509184  0.4804901878875327  0.4561566621143882   T   T   T
  0.5722690696403276  0.4527781246273364  0.4724500874892712   T   T   T
  0.5771747865462800  0.5499862598666212  0.5021126731130678   T   T   T
  0.5442468423614528  0.5393161301528764  0.4733033772256121   T   T   T
  0.5213803410237361  0.5453384022815868  0.5317651414295739   T   T   T
  0.5509962189875495  0.5153289659669369  0.5460951177913032   T   T   T
  0.4700822835251230  0.4449625094858405  0.5108453382107214   T   T   T
  0.4112779910159148  0.4505703689803013  0.4944721528608085   T   T   T
  0.3867686696957264  0.5068865698992511  0.4832772427454586   T   T   T
  0.4222348901465836  0.5579057061007973  0.4891775194668995   T   T   T
  0.4812176360677327  0.5532424561522902  0.5048292771429246   T   T   T
 
  0.00000000E+00  0.00000000E+00  0.00000000E+00
  0.00000000E+00  0.00000000E+00  0.00000000E+00
  0.00000000E+00  0.00000000E+00  0.00000000E+00
  0.00000000E+00  0.00000000E+00  0.00000000E+00
  0.00000000E+00  0.00000000E+00  0.00000000E+00
  0.00000000E+00  0.00000000E+00  0.00000000E+00
  0.00000000E+00  0.00000000E+00  0.00000000E+00
  0.00000000E+00  0.00000000E+00  0.00000000E+00
  0.00000000E+00  0.00000000E+00  0.00000000E+00
  0.00000000E+00  0.00000000E+00  0.00000000E+00
  0.00000000E+00  0.00000000E+00  0.00000000E+00
  0.00000000E+00  0.00000000E+00  0.00000000E+00
  0.00000000E+00  0.00000000E+00  0.00000000E+00
  0.00000000E+00  0.00000000E+00  0.00000000E+00
  0.00000000E+00  0.00000000E+00  0.00000000E+00
  0.00000000E+00  0.00000000E+00  0.00000000E+00
  0.00000000E+00  0.00000000E+00  0.00000000E+00
  0.00000000E+00  0.00000000E+00  0.00000000E+00
  0.00000000E+00  0.00000000E+00  0.00000000E+00
  0.00000000E+00  0.00000000E+00  0.00000000E+00
  0.00000000E+00  0.00000000E+00  0.00000000E+00
  0.00000000E+00  0.00000000E+00  0.00000000E+00
  0.00000000E+00  0.00000000E+00  0.00000000E+00
  0.00000000E+00  0.00000000E+00  0.00000000E+00
  0.00000000E+00  0.00000000E+00  0.00000000E+00
