C O H                                   
   1.00000000000000     
    25.0000000000000000    0.0000000000000000    0.0000000000000000
     0.0000000000000000   25.0000000000000000    0.0000000000000000
     0.0000000000000000    0.0000000000000000   25.0000000000000000
   C    O    H 
    11     2     8
Selective dynamics
Direct
  0.5022930752521207  0.4922342293698295  0.4270421606440626   T   T   T
  0.5018937075175299  0.5492723200748029  0.4337154570903455   T   T   T
  0.5003154448174598  0.5750799722971616  0.4828239193585844   T   T   T
  0.4989007197008940  0.5447482533118023  0.5322175157602546   T   T   T
  0.4992254910056984  0.4860317278683142  0.5274824824433190   T   T   T
  0.5009183851736569  0.4603305885506006  0.4765312418146875   T   T   T
  0.5011533497143442  0.4039131469252329  0.4742697050868768   T   T   T
  0.4997459989643893  0.3732470103538110  0.5206015019778307   T   T   T
  0.4980493668330779  0.3986141888485852  0.5709643594444026   T   T   T
  0.4978376759270408  0.4540952964048263  0.5740477036637239   T   T   T
  0.4999810608060267  0.6350401635969862  0.4866581092140411   T   T   T
  0.4974332994620899  0.5678270157608345  0.5778440413597986   T   T   T
  0.5037347889951962  0.4702257008384742  0.3807915935194204   T   T   T
  0.5028996379698045  0.5730491732672608  0.3969655204945199   T   T   T
  0.4965944625783280  0.4743648078083214  0.6126880513561422   T   T   T
  0.4970059542257416  0.3746826399854267  0.6074720320380782   T   T   T
  0.4999534701516895  0.3296358719781758  0.5181284706753490   T   T   T
  0.5024462688485020  0.3849192789015656  0.4349699017799802   T   T   T
  0.4641393144830897  0.6493629488299179  0.5078763986666406   T   T   T
  0.5343772137385098  0.6496198166784214  0.5099902854526804   T   T   T
  0.5011043138348235  0.6537048483496372  0.4469185481592784   T   T   T
 
  0.00000000E+00  0.00000000E+00  0.00000000E+00
  0.00000000E+00  0.00000000E+00  0.00000000E+00
  0.00000000E+00  0.00000000E+00  0.00000000E+00
  0.00000000E+00  0.00000000E+00  0.00000000E+00
  0.00000000E+00  0.00000000E+00  0.00000000E+00
  0.00000000E+00  0.00000000E+00  0.00000000E+00
  0.00000000E+00  0.00000000E+00  0.00000000E+00
  0.00000000E+00  0.00000000E+00  0.00000000E+00
  0.00000000E+00  0.00000000E+00  0.00000000E+00
  0.00000000E+00  0.00000000E+00  0.00000000E+00
  0.00000000E+00  0.00000000E+00  0.00000000E+00
  0.00000000E+00  0.00000000E+00  0.00000000E+00
  0.00000000E+00  0.00000000E+00  0.00000000E+00
  0.00000000E+00  0.00000000E+00  0.00000000E+00
  0.00000000E+00  0.00000000E+00  0.00000000E+00
  0.00000000E+00  0.00000000E+00  0.00000000E+00
  0.00000000E+00  0.00000000E+00  0.00000000E+00
  0.00000000E+00  0.00000000E+00  0.00000000E+00
  0.00000000E+00  0.00000000E+00  0.00000000E+00
  0.00000000E+00  0.00000000E+00  0.00000000E+00
  0.00000000E+00  0.00000000E+00  0.00000000E+00
