C O H                                   
   1.00000000000000     
    25.0000000000000000    0.0000000000000000    0.0000000000000000
     0.0000000000000000   25.0000000000000000    0.0000000000000000
     0.0000000000000000    0.0000000000000000   25.0000000000000000
   C    O    H 
    12     2    10
Selective dynamics
Direct
  0.4976010277320841  0.4803734872263558  0.4442745728619771   T   T   T
  0.4987706673440681  0.5380802129516248  0.4497497928799360   T   T   T
  0.5011284951435695  0.5630830143879380  0.4997045580737690   T   T   T
  0.5023640053136662  0.5328762294406115  0.5492115932739242   T   T   T
  0.5011689220747514  0.4741888052710369  0.5448055609251926   T   T   T
  0.4988590850080299  0.4487360225761671  0.4938653326531918   T   T   T
  0.4977479850665090  0.3922998548016770  0.4915144459584102   T   T   T
  0.4988387172910292  0.3614727488666375  0.5377395111949829   T   T   T
  0.5011557421219903  0.3866572682446608  0.5881699522630409   T   T   T
  0.5022741269253089  0.4421370655535992  0.5913383006613915   T   T   T
  0.5024568874931017  0.6231663681939277  0.5033969010371961   T   T   T
  0.4975251795202016  0.5710688701194471  0.3993855457438647   T   T   T
  0.5043502532904889  0.5555568153128889  0.5951084120525937   T   T   T
  0.4956201240840338  0.4572452096841619  0.3985953852854918   T   T   T
  0.5040411879995285  0.4622507555255284  0.6300310787325882   T   T   T
  0.5020786404153829  0.3625467532973309  0.6245781660790056   T   T   T
  0.4979844197926758  0.3178810912329964  0.5351066505113294   T   T   T
  0.4959876392851034  0.3735041834252905  0.4521634577457153   T   T   T
  0.4667776306674642  0.6414350436465686  0.4850285686707579   T   T   T
  0.5044133118224037  0.6355972143925285  0.5453995342143829   T   T   T
  0.5372090359276606  0.6400258266186034  0.4821392147402563   T   T   T
  0.5332190665407360  0.5967120873149243  0.3958544486470788   T   T   T
  0.4956257829731214  0.5448840110689880  0.3642791589596368   T   T   T
  0.4628010661670866  0.5982220608464904  0.3985598568342651   T   T   T
 
  0.00000000E+00  0.00000000E+00  0.00000000E+00
  0.00000000E+00  0.00000000E+00  0.00000000E+00
  0.00000000E+00  0.00000000E+00  0.00000000E+00
  0.00000000E+00  0.00000000E+00  0.00000000E+00
  0.00000000E+00  0.00000000E+00  0.00000000E+00
  0.00000000E+00  0.00000000E+00  0.00000000E+00
  0.00000000E+00  0.00000000E+00  0.00000000E+00
  0.00000000E+00  0.00000000E+00  0.00000000E+00
  0.00000000E+00  0.00000000E+00  0.00000000E+00
  0.00000000E+00  0.00000000E+00  0.00000000E+00
  0.00000000E+00  0.00000000E+00  0.00000000E+00
  0.00000000E+00  0.00000000E+00  0.00000000E+00
  0.00000000E+00  0.00000000E+00  0.00000000E+00
  0.00000000E+00  0.00000000E+00  0.00000000E+00
  0.00000000E+00  0.00000000E+00  0.00000000E+00
  0.00000000E+00  0.00000000E+00  0.00000000E+00
  0.00000000E+00  0.00000000E+00  0.00000000E+00
  0.00000000E+00  0.00000000E+00  0.00000000E+00
  0.00000000E+00  0.00000000E+00  0.00000000E+00
  0.00000000E+00  0.00000000E+00  0.00000000E+00
  0.00000000E+00  0.00000000E+00  0.00000000E+00
  0.00000000E+00  0.00000000E+00  0.00000000E+00
  0.00000000E+00  0.00000000E+00  0.00000000E+00
  0.00000000E+00  0.00000000E+00  0.00000000E+00
