C N O H                                 
   1.00000000000000     
    40.0000000000000000    0.0000000000000000    0.0000000000000000
     0.0000000000000000   40.0000000000000000    0.0000000000000000
     0.0000000000000000    0.0000000000000000   40.0000000000000000
   C    N    O    H 
     7     1     1     9
Selective dynamics
Direct
  0.5452037007104247  0.5236696743306902  0.5005373753933166   T   T   T
  0.5161341732918626  0.5424441437810055  0.5005924809236143   T   T   T
  0.4845730490561373  0.5275783598479130  0.5007205920724904   T   T   T
  0.4828229528681074  0.4927142400823808  0.5006750764400802   T   T   T
  0.5118265081950336  0.4733879039670191  0.5005584331871029   T   T   T
  0.5432096984162502  0.4885996411029861  0.5005649911510912   T   T   T
  0.4231464677598813  0.4934579277127619  0.5007296322250699   T   T   T
  0.5720536426898823  0.4693737974622592  0.5021894516269013   T   T   T
  0.4535990148154182  0.4749971662179668  0.5006508395275299   T   T   T
  0.5698746920378046  0.4455494595085426  0.4942762980223330   T   T   T
  0.5930764902122369  0.4804799593477939  0.4938460455676172   T   T   T
  0.5094370821385856  0.4463850778299830  0.5005727487261915   T   T   T
  0.4032768572658954  0.4748936311657815  0.5007248911380082   T   T   T
  0.4210158948564276  0.5091635104271838  0.4784227460814891   T   T   T
  0.4210834007970879  0.5090833867983234  0.5231004168794265   T   T   T
  0.4623405594310430  0.5429374934190789  0.5007369289239236   T   T   T
  0.5178708961437086  0.5695053357489462  0.5005348490553320   T   T   T
  0.5694559193142242  0.5357782912493578  0.5005652030584914   T   T   T
 
  0.00000000E+00  0.00000000E+00  0.00000000E+00
  0.00000000E+00  0.00000000E+00  0.00000000E+00
  0.00000000E+00  0.00000000E+00  0.00000000E+00
  0.00000000E+00  0.00000000E+00  0.00000000E+00
  0.00000000E+00  0.00000000E+00  0.00000000E+00
  0.00000000E+00  0.00000000E+00  0.00000000E+00
  0.00000000E+00  0.00000000E+00  0.00000000E+00
  0.00000000E+00  0.00000000E+00  0.00000000E+00
  0.00000000E+00  0.00000000E+00  0.00000000E+00
  0.00000000E+00  0.00000000E+00  0.00000000E+00
  0.00000000E+00  0.00000000E+00  0.00000000E+00
  0.00000000E+00  0.00000000E+00  0.00000000E+00
  0.00000000E+00  0.00000000E+00  0.00000000E+00
  0.00000000E+00  0.00000000E+00  0.00000000E+00
  0.00000000E+00  0.00000000E+00  0.00000000E+00
  0.00000000E+00  0.00000000E+00  0.00000000E+00
  0.00000000E+00  0.00000000E+00  0.00000000E+00
  0.00000000E+00  0.00000000E+00  0.00000000E+00
