C O H                                   
   1.00000000000000     
    40.0000000000000000    0.0000000000000000    0.0000000000000000
     0.0000000000000000   40.0000000000000000    0.0000000000000000
     0.0000000000000000    0.0000000000000000   40.0000000000000000
   C    O    H 
     9     1     8
Selective dynamics
Direct
  0.4880263906320295  0.4777484113577728  0.4999899522457980   T   T   T
  0.4733785757963247  0.5096678822762186  0.4999959538199619   T   T   T
  0.4938602631345503  0.5382841527063675  0.4999957502472299   T   T   T
  0.5283933427675578  0.5350897455658341  0.4999931496875121   T   T   T
  0.5435991702685214  0.5031555375747416  0.4999908870777645   T   T   T
  0.5227871571258618  0.4747466760162453  0.4999876188785635   T   T   T
  0.5790646278604754  0.4998850044177132  0.4999987201351104   T   T   T
  0.6093821979890066  0.4972120747006485  0.5000160016799597   T   T   T
  0.4176476290075044  0.4871926070443422  0.5000091381225005   T   T   T
  0.4397715794424499  0.5155695234682511  0.5000022347234321   T   T   T
  0.5340537957568117  0.4499246345271644  0.4999817912498017   T   T   T
  0.6360707919400213  0.4947801808261261  0.5000314349672408   T   T   T
  0.5440324022603065  0.5574160157294230  0.4999866529180537   T   T   T
  0.4821179238658786  0.5628830916369978  0.4999968539825161   T   T   T
  0.3923298776751238  0.4975702400418385  0.5000172731116379   T   T   T
  0.4213538259771497  0.4718250366966856  0.4774966422782754   T   T   T
  0.4213679369843462  0.4718248084829568  0.5225192230996143   T   T   T
  0.4727615115160901  0.4552243769306656  0.4999907217750206   T   T   T
 
  0.00000000E+00  0.00000000E+00  0.00000000E+00
  0.00000000E+00  0.00000000E+00  0.00000000E+00
  0.00000000E+00  0.00000000E+00  0.00000000E+00
  0.00000000E+00  0.00000000E+00  0.00000000E+00
  0.00000000E+00  0.00000000E+00  0.00000000E+00
  0.00000000E+00  0.00000000E+00  0.00000000E+00
  0.00000000E+00  0.00000000E+00  0.00000000E+00
  0.00000000E+00  0.00000000E+00  0.00000000E+00
  0.00000000E+00  0.00000000E+00  0.00000000E+00
  0.00000000E+00  0.00000000E+00  0.00000000E+00
  0.00000000E+00  0.00000000E+00  0.00000000E+00
  0.00000000E+00  0.00000000E+00  0.00000000E+00
  0.00000000E+00  0.00000000E+00  0.00000000E+00
  0.00000000E+00  0.00000000E+00  0.00000000E+00
  0.00000000E+00  0.00000000E+00  0.00000000E+00
  0.00000000E+00  0.00000000E+00  0.00000000E+00
  0.00000000E+00  0.00000000E+00  0.00000000E+00
  0.00000000E+00  0.00000000E+00  0.00000000E+00
