!r2SCAN aug-cc-pVTZ d3 TightSCF SlowConv RIJCOSX defgrid2
 
%pal
nprocs 4
end
 
%scf
MaxIter 1500
end
 
%maxcore 3000
 
!CPCM
%cpcm smd true
SMDsolvent "MeCN"
surfacetype gepol_ses
rsolv 2.19
end 
 
* xyz 1 1
S          -0.00010944424839      1.35688622383581     -0.00045588940143
C          -1.36031372365063      0.28664543166242     -0.00546340006884
C          -2.62476671337193      0.84705677005335     -0.00971453464717
C          -3.78353785154568      0.02886102280580     -0.01423429397565
C          -3.60107018284620     -1.39624179093014     -0.01297231605589
C          -2.35199681392559     -1.94146658195771     -0.00876136479511
H          -2.20685076914384     -3.02424367637830     -0.00793305758699
C          -1.17128315978886     -1.13818915246922     -0.00497020504615
N          -0.00001727096531     -1.76076243632930     -0.00102819010967
C           1.17121135470124     -1.13812134734186      0.00317013049378
C           2.35197256200709     -1.94133049036071      0.00663254829317
C           3.60101296929016     -1.39603417388084      0.01111542619478
C           3.78339829568492      0.02907907789014      0.01307239629264
C           2.62457944996628      0.84720769458296      0.00871634184597
C           1.36015864778127      0.28672353397519      0.00420556171077
H           2.71641587399496      1.93353835850929      0.00870793171486
N           5.01788004531514      0.56609746843354      0.01833544940540
C           5.18814133491822      2.00584377316990      0.01634403450098
H           4.74542942133653      2.46193420678108     -0.88734870267485
H           4.72786575445769      2.46596005134639      0.90894953027437
H           6.25942535209398      2.24475285672826      0.02662709311567
C           6.19613286716415     -0.28271908536379      0.01876057872020
H           7.09315770451857      0.34984666853403      0.03069035539786
H           6.22593666634906     -0.93099154946415      0.91190332484387
H           6.23822191663831     -0.91632293624570     -0.88458991452958
H           4.46615171425756     -2.05841324252657      0.01286181646995
H           2.20688865714732     -3.02411577980646      0.00525686441104
H          -4.46616949026249     -2.05867393830664     -0.01518022916305
N          -5.01805188093167      0.56580837981430     -0.01910492853996
C          -6.19625511800718     -0.28307615883811     -0.01957513903852
H          -6.23708281763836     -0.91821943273873      0.88272679402223
H          -6.22732906825129     -0.92976319747341     -0.91384668889601
H          -7.09331253060909      0.34948868396873     -0.02891629923048
C          -5.18838315405153      2.00554867169595     -0.01756056694950
H          -4.74545392382641      2.46196127570139      0.88586029063703
H          -4.72835954265605      2.46538730377880     -0.91044348638837
H          -6.25968060226678      2.24440376590571     -0.02761767922995
H          -2.71666652963520      1.93338075123861     -0.00930728201738
*
