C N H                                   
   1.00000000000000     
    40.0000000000000000    0.0000000000000000    0.0000000000000000
     0.0000000000000000   40.0000000000000000    0.0000000000000000
     0.0000000000000000    0.0000000000000000   40.0000000000000000
   C    N    H 
     6     1     7
Selective dynamics
Direct
  0.4948407004549328  0.4696827388862440  0.5008408051026656   T   T   T
  0.5297280762683770  0.4698531033098300  0.5008471302049042   T   T   T
  0.5475587291042211  0.4999990000000025  0.5008464720747164   T   T   T
  0.5297280762683770  0.5301458966901654  0.5008471302049042   T   T   T
  0.4948417004549303  0.5303172611137560  0.5008408051026656   T   T   T
  0.4767470419913029  0.5000000000000000  0.5007906404895939   T   T   T
  0.4420982295308424  0.5000009999999975  0.5020628560462798   T   T   T
  0.4304780732970128  0.5212136720059005  0.4944067703505725   T   T   T
  0.4304770732970153  0.4787883279941014  0.4944067703505725   T   T   T
  0.4812246655720058  0.5539987277450472  0.5008575174064135   T   T   T
  0.5431161980382490  0.5539481075707080  0.5007901800813628   T   T   T
  0.5748225721124525  0.4999990000000025  0.5008162250975555   T   T   T
  0.5431151980382515  0.4460508924292874  0.5007901800813628   T   T   T
  0.4812226655720108  0.4460012722549528  0.5008575174064135   T   T   T
 
  0.00000000E+00  0.00000000E+00  0.00000000E+00
  0.00000000E+00  0.00000000E+00  0.00000000E+00
  0.00000000E+00  0.00000000E+00  0.00000000E+00
  0.00000000E+00  0.00000000E+00  0.00000000E+00
  0.00000000E+00  0.00000000E+00  0.00000000E+00
  0.00000000E+00  0.00000000E+00  0.00000000E+00
  0.00000000E+00  0.00000000E+00  0.00000000E+00
  0.00000000E+00  0.00000000E+00  0.00000000E+00
  0.00000000E+00  0.00000000E+00  0.00000000E+00
  0.00000000E+00  0.00000000E+00  0.00000000E+00
  0.00000000E+00  0.00000000E+00  0.00000000E+00
  0.00000000E+00  0.00000000E+00  0.00000000E+00
  0.00000000E+00  0.00000000E+00  0.00000000E+00
  0.00000000E+00  0.00000000E+00  0.00000000E+00
