C N H                                   
   1.00000000000000     
    40.0000000000000000    0.0000000000000000    0.0000000000000000
     0.0000000000000000   40.0000000000000000    0.0000000000000000
     0.0000000000000000    0.0000000000000000   40.0000000000000000
   C    N    H 
     8     1    11
Selective dynamics
Direct
  0.4801115180016682  0.5303047492534809  0.5001141501090307   T   T   T
  0.4452540175138605  0.5300192961579561  0.5003231133854030   T   T   T
  0.4273434099584027  0.5000017563776498  0.5004201818809184   T   T   T
  0.4452521022763443  0.4699843922940657  0.5003161646160186   T   T   T
  0.4801096988060038  0.4696970337911582  0.5001072049405035   T   T   T
  0.4985373688818946  0.4999986984003060  0.4999868711436249   T   T   T
  0.5511820793382084  0.5313664507673733  0.4997073801729127   T   T   T
  0.5511800574517648  0.4686304310515113  0.4997144734758490   T   T   T
  0.5330109828673575  0.4999992067454326  0.4997196687326189   T   T   T
  0.5780743297015694  0.5262674367180283  0.4995087646933775   T   T   T
  0.5452837932050765  0.5466928615581100  0.4775193677756512   T   T   T
  0.5455892611866037  0.5465373755080769  0.5220888007881321   T   T   T
  0.5780723574360839  0.4737279673678210  0.4995335869756335   T   T   T
  0.5455725003318269  0.4534589967604674  0.5220911424093048   T   T   T
  0.5452946761266508  0.4533053826247210  0.4775220358768958   T   T   T
  0.4930614661122606  0.4457666540707522  0.5000043202779523   T   T   T
  0.4319540478331870  0.4461559947142349  0.5003701446650206   T   T   T
  0.4000969567401662  0.5000023697353442  0.5005541875634782   T   T   T
  0.4319563787777566  0.5538473924400008  0.5003829443711895   T   T   T
  0.4930639974533040  0.5542345536635049  0.5000164961464894   T   T   T
 
  0.00000000E+00  0.00000000E+00  0.00000000E+00
  0.00000000E+00  0.00000000E+00  0.00000000E+00
  0.00000000E+00  0.00000000E+00  0.00000000E+00
  0.00000000E+00  0.00000000E+00  0.00000000E+00
  0.00000000E+00  0.00000000E+00  0.00000000E+00
  0.00000000E+00  0.00000000E+00  0.00000000E+00
  0.00000000E+00  0.00000000E+00  0.00000000E+00
  0.00000000E+00  0.00000000E+00  0.00000000E+00
  0.00000000E+00  0.00000000E+00  0.00000000E+00
  0.00000000E+00  0.00000000E+00  0.00000000E+00
  0.00000000E+00  0.00000000E+00  0.00000000E+00
  0.00000000E+00  0.00000000E+00  0.00000000E+00
  0.00000000E+00  0.00000000E+00  0.00000000E+00
  0.00000000E+00  0.00000000E+00  0.00000000E+00
  0.00000000E+00  0.00000000E+00  0.00000000E+00
  0.00000000E+00  0.00000000E+00  0.00000000E+00
  0.00000000E+00  0.00000000E+00  0.00000000E+00
  0.00000000E+00  0.00000000E+00  0.00000000E+00
  0.00000000E+00  0.00000000E+00  0.00000000E+00
  0.00000000E+00  0.00000000E+00  0.00000000E+00
