C O H                                   
   1.00000000000000     
    40.0000000000000000    0.0000000000000000    0.0000000000000000
     0.0000000000000000   40.0000000000000000    0.0000000000000000
     0.0000000000000000    0.0000000000000000   40.0000000000000000
   C    O    H 
     9     1     8
Selective dynamics
Direct
  0.4880285151746825  0.4777579705851004  0.4999906826608976   T   T   T
  0.4733786779207825  0.5096731958952818  0.4999970936068774   T   T   T
  0.4938596608433200  0.5382820342147457  0.4999952288996871   T   T   T
  0.5283887243678860  0.5350808177371588  0.4999926604157421   T   T   T
  0.5435885234276894  0.5031490426691831  0.4999932530043966   T   T   T
  0.5227807136725315  0.4747435643350246  0.4999884774561398   T   T   T
  0.5790464304567702  0.4998807718387527  0.5000000967789425   T   T   T
  0.6093639083590388  0.4972091320997136  0.5000163943954613   T   T   T
  0.4176702014328244  0.4871979309889841  0.5000086340194123   T   T   T
  0.4397766759259892  0.5155695348022766  0.5000016413769937   T   T   T
  0.5340425911873095  0.4499197861085260  0.4999817308226966   T   T   T
  0.6360649747626046  0.4947899359451858  0.5000299482869237   T   T   T
  0.5440351270773631  0.5574011468563855  0.4999880776264269   T   T   T
  0.4821258860156885  0.5628892832239585  0.4999959481836770   T   T   T
  0.3923547297862762  0.4975881275144615  0.5000164169884415   T   T   T
  0.4213649250447075  0.4718126263313380  0.4774958801245347   T   T   T
  0.4213792849614469  0.4718122930801630  0.5225187480342074   T   T   T
  0.4727494495830994  0.4552428057737532  0.4999890873185493   T   T   T
 
  0.00000000E+00  0.00000000E+00  0.00000000E+00
  0.00000000E+00  0.00000000E+00  0.00000000E+00
  0.00000000E+00  0.00000000E+00  0.00000000E+00
  0.00000000E+00  0.00000000E+00  0.00000000E+00
  0.00000000E+00  0.00000000E+00  0.00000000E+00
  0.00000000E+00  0.00000000E+00  0.00000000E+00
  0.00000000E+00  0.00000000E+00  0.00000000E+00
  0.00000000E+00  0.00000000E+00  0.00000000E+00
  0.00000000E+00  0.00000000E+00  0.00000000E+00
  0.00000000E+00  0.00000000E+00  0.00000000E+00
  0.00000000E+00  0.00000000E+00  0.00000000E+00
  0.00000000E+00  0.00000000E+00  0.00000000E+00
  0.00000000E+00  0.00000000E+00  0.00000000E+00
  0.00000000E+00  0.00000000E+00  0.00000000E+00
  0.00000000E+00  0.00000000E+00  0.00000000E+00
  0.00000000E+00  0.00000000E+00  0.00000000E+00
  0.00000000E+00  0.00000000E+00  0.00000000E+00
  0.00000000E+00  0.00000000E+00  0.00000000E+00
