C N H                                   
   1.00000000000000     
    40.0000000000000000    0.0000000000000000    0.0000000000000000
     0.0000000000000000   40.0000000000000000    0.0000000000000000
     0.0000000000000000    0.0000000000000000   40.0000000000000000
   C    N    H 
     6     2     8
Selective dynamics
Direct
  0.4812300881327332  0.5352549115921406  0.4992176419277499   T   T   T
  0.4516589649790461  0.5178121116101195  0.4997383429975670   T   T   T
  0.4516570240847670  0.4821882090906797  0.5002642516552811   T   T   T
  0.4812298775380626  0.4647457220867182  0.5007846318209488   T   T   T
  0.5123394788737414  0.4818027343729057  0.5008054567410412   T   T   T
  0.5123412932766129  0.5181975374659444  0.4991967875414645   T   T   T
  0.5410136191329613  0.4642936716097381  0.5022982093929045   T   T   T
  0.5410147442278515  0.5357063048940134  0.4976987500984364   T   T   T
  0.5640276314584440  0.4746585459603097  0.5039568674417225   T   T   T
  0.5403688555453314  0.4389626371215414  0.5034118434137866   T   T   T
  0.5640290227053697  0.5253387996515002  0.4960417943132640   T   T   T
  0.5403716843767583  0.5610371992642627  0.4965866614818992   T   T   T
  0.4813577944948264  0.4375061080624789  0.5015356021408195   T   T   T
  0.4279998296838059  0.4687287964275555  0.5004020138207181   T   T   T
  0.4280013032567993  0.5312725803127094  0.4995964652922069   T   T   T
  0.4813587882328889  0.5624941304773898  0.4984636799201994   T   T   T
 
  0.00000000E+00  0.00000000E+00  0.00000000E+00
  0.00000000E+00  0.00000000E+00  0.00000000E+00
  0.00000000E+00  0.00000000E+00  0.00000000E+00
  0.00000000E+00  0.00000000E+00  0.00000000E+00
  0.00000000E+00  0.00000000E+00  0.00000000E+00
  0.00000000E+00  0.00000000E+00  0.00000000E+00
  0.00000000E+00  0.00000000E+00  0.00000000E+00
  0.00000000E+00  0.00000000E+00  0.00000000E+00
  0.00000000E+00  0.00000000E+00  0.00000000E+00
  0.00000000E+00  0.00000000E+00  0.00000000E+00
  0.00000000E+00  0.00000000E+00  0.00000000E+00
  0.00000000E+00  0.00000000E+00  0.00000000E+00
  0.00000000E+00  0.00000000E+00  0.00000000E+00
  0.00000000E+00  0.00000000E+00  0.00000000E+00
  0.00000000E+00  0.00000000E+00  0.00000000E+00
  0.00000000E+00  0.00000000E+00  0.00000000E+00
