C N H                                   
   1.00000000000000     
    40.0000000000000000    0.0000000000000000    0.0000000000000000
     0.0000000000000000   40.0000000000000000    0.0000000000000000
     0.0000000000000000    0.0000000000000000   40.0000000000000000
   C    N    H 
    12     1    11
Selective dynamics
Direct
  0.4408112768997299  0.4693742905456304  0.5112639808219726   T   T   T
  0.4087483027516186  0.4829328990972286  0.5101978880222973   T   T   T
  0.4034598130964042  0.5151923239337393  0.4977790937541329   T   T   T
  0.4308258465801202  0.5334478997439405  0.4859962485700891   T   T   T
  0.4630197533925013  0.5200504327597670  0.4866198062888429   T   T   T
  0.4684976537487273  0.4877548179414504  0.4995501983598061   T   T   T
  0.5315023462512727  0.4877548179414504  0.5004488016401893   T   T   T
  0.5369802466074987  0.5200504327597670  0.5133791937111596   T   T   T
  0.5691741534198798  0.5334478997439405  0.5140037514299109   T   T   T
  0.5965401869035958  0.5151913239337418  0.5022209062458671   T   T   T
  0.5912516972483814  0.4829318990972240  0.4898031119777073   T   T   T
  0.5591887231002701  0.4693732905456329  0.4887370191780249   T   T   T
  0.5000000000000000  0.4727016476418200  0.5000000000000000   T   T   T
  0.5552220802555681  0.4443006560580542  0.4786904073095357   T   T   T
  0.6122514300251467  0.4681881781570922  0.4805918979474626   T   T   T
  0.6215959126302906  0.5258719264621874  0.5028269180519374   T   T   T
  0.5728402404356032  0.5584606810131163  0.5242457312806792   T   T   T
  0.5161909868427870  0.5344020591830727  0.5235289677217736   T   T   T
  0.5000000000000000  0.4473470225676408  0.5000000000000000   T   T   T
  0.4838090131572130  0.5344020591830727  0.4764700322782218   T   T   T
  0.4271597595643968  0.5584606810131163  0.4757542687193208   T   T   T
  0.3784040873697094  0.5258729264621849  0.4971740819480601   T   T   T
  0.3877485699748533  0.4681891781570968  0.5194091020525349   T   T   T
  0.4447779197444319  0.4443006560580542  0.5213095926904643   T   T   T
 
  0.00000000E+00  0.00000000E+00  0.00000000E+00
  0.00000000E+00  0.00000000E+00  0.00000000E+00
  0.00000000E+00  0.00000000E+00  0.00000000E+00
  0.00000000E+00  0.00000000E+00  0.00000000E+00
  0.00000000E+00  0.00000000E+00  0.00000000E+00
  0.00000000E+00  0.00000000E+00  0.00000000E+00
  0.00000000E+00  0.00000000E+00  0.00000000E+00
  0.00000000E+00  0.00000000E+00  0.00000000E+00
  0.00000000E+00  0.00000000E+00  0.00000000E+00
  0.00000000E+00  0.00000000E+00  0.00000000E+00
  0.00000000E+00  0.00000000E+00  0.00000000E+00
  0.00000000E+00  0.00000000E+00  0.00000000E+00
  0.00000000E+00  0.00000000E+00  0.00000000E+00
  0.00000000E+00  0.00000000E+00  0.00000000E+00
  0.00000000E+00  0.00000000E+00  0.00000000E+00
  0.00000000E+00  0.00000000E+00  0.00000000E+00
  0.00000000E+00  0.00000000E+00  0.00000000E+00
  0.00000000E+00  0.00000000E+00  0.00000000E+00
  0.00000000E+00  0.00000000E+00  0.00000000E+00
  0.00000000E+00  0.00000000E+00  0.00000000E+00
  0.00000000E+00  0.00000000E+00  0.00000000E+00
  0.00000000E+00  0.00000000E+00  0.00000000E+00
  0.00000000E+00  0.00000000E+00  0.00000000E+00
  0.00000000E+00  0.00000000E+00  0.00000000E+00
