C O H                                   
   1.00000000000000     
    40.0000000000000000    0.0000000000000000    0.0000000000000000
     0.0000000000000000   40.0000000000000000    0.0000000000000000
     0.0000000000000000    0.0000000000000000   40.0000000000000000
   C    O    H 
     9     1    10
Selective dynamics
Direct
  0.5066994548433120  0.5241775576241984  0.4997664052784618   T   T   T
  0.4718349551600530  0.5245317786513145  0.4996430285083825   T   T   T
  0.4534196160926641  0.4946812554974089  0.4996807995141269   T   T   T
  0.4711163236048225  0.4642980210581931  0.4997325541017439   T   T   T
  0.5058333072375677  0.4637846355607290  0.4998762355123609   T   T   T
  0.5242755297149094  0.4937368859760599  0.4999177199015319   T   T   T
  0.5615768535130986  0.4919185661294537  0.5000250146238293   T   T   T
  0.5813634902774757  0.5241927725117789  0.5000780471289799   T   T   T
  0.4158474503488547  0.4949444839259262  0.5002569950126665   T   T   T
  0.5761076625241377  0.4646595529018618  0.5000917772807644   T   T   T
  0.6081021970075182  0.5183562940343126  0.5002037766474428   T   T   T
  0.5752282874238194  0.5394342499986732  0.5221306504341081   T   T   T
  0.5754305920125073  0.5393602231379737  0.4779181500720411   T   T   T
  0.5194556005278569  0.4401757741654050  0.4998575227539235   T   T   T
  0.4572854625330591  0.4407636631848459  0.4995747377692872   T   T   T
  0.4065684732400801  0.4917787566251788  0.5259900899542718   T   T   T
  0.4057047443407668  0.5185786541851337  0.4907263410998294   T   T   T
  0.4054471602706930  0.4743282760841495  0.4854053748354488   T   T   T
  0.4585927005233075  0.5483943903760331  0.4994411747329549   T   T   T
  0.5201101388035034  0.5479052083713605  0.4996856048378396   T   T   T
 
  0.00000000E+00  0.00000000E+00  0.00000000E+00
  0.00000000E+00  0.00000000E+00  0.00000000E+00
  0.00000000E+00  0.00000000E+00  0.00000000E+00
  0.00000000E+00  0.00000000E+00  0.00000000E+00
  0.00000000E+00  0.00000000E+00  0.00000000E+00
  0.00000000E+00  0.00000000E+00  0.00000000E+00
  0.00000000E+00  0.00000000E+00  0.00000000E+00
  0.00000000E+00  0.00000000E+00  0.00000000E+00
  0.00000000E+00  0.00000000E+00  0.00000000E+00
  0.00000000E+00  0.00000000E+00  0.00000000E+00
  0.00000000E+00  0.00000000E+00  0.00000000E+00
  0.00000000E+00  0.00000000E+00  0.00000000E+00
  0.00000000E+00  0.00000000E+00  0.00000000E+00
  0.00000000E+00  0.00000000E+00  0.00000000E+00
  0.00000000E+00  0.00000000E+00  0.00000000E+00
  0.00000000E+00  0.00000000E+00  0.00000000E+00
  0.00000000E+00  0.00000000E+00  0.00000000E+00
  0.00000000E+00  0.00000000E+00  0.00000000E+00
  0.00000000E+00  0.00000000E+00  0.00000000E+00
  0.00000000E+00  0.00000000E+00  0.00000000E+00
