C H                                     
   1.00000000000000     
    40.0000000000000000    0.0000000000000000    0.0000000000000000
     0.0000000000000000   40.0000000000000000    0.0000000000000000
     0.0000000000000000    0.0000000000000000   40.0000000000000000
   C    H 
    10    12
Selective dynamics
Direct
  0.5267297201008825  0.4687150791707660  0.5000030366345772   T   T   T
  0.5359386994392724  0.5024797908574375  0.5000022886630994   T   T   T
  0.5102814425482886  0.5263142517183379  0.5000014474240688   T   T   T
  0.4765667689167886  0.5176064046855479  0.5000001577051797   T   T   T
  0.4677522712638060  0.4835913318437747  0.5000011438741084   T   T   T
  0.4932749369870527  0.4597355382818464  0.5000035469323098   T   T   T
  0.4317718558702434  0.4730158153738505  0.5000003640860927   T   T   T
  0.4500839726019815  0.5441832502309315  0.4999985625914842   T   T   T
  0.5706946131551899  0.5139119711280419  0.5000033112315264   T   T   T
  0.5982985774324128  0.4950907258793321  0.4999916145722502   T   T   T
  0.4865930245795290  0.4334259218757965  0.5000054886846683   T   T   T
  0.4295082104873777  0.4458459528788620  0.5000024029544520   T   T   T
  0.4184776603650390  0.4826161419696047  0.4780882548112378   T   T   T
  0.4184754230154664  0.4826198425882388  0.5219093596189146   T   T   T
  0.4338321916763503  0.5421050234282683  0.5219128057662922   T   T   T
  0.4338300862690302  0.5421003222836789  0.4780864745537601   T   T   T
  0.4611419199698232  0.5690971620942961  0.4999956281124179   T   T   T
  0.5169704663206867  0.5526550133202091  0.5000014887528755   T   T   T
  0.5975823972501190  0.4679989869796399  0.4999794371698048   T   T   T
  0.6228116632361912  0.5065842823437464  0.4999937182772697   T   T   T
  0.5737030736764087  0.5409591627444312  0.5000135963747905   T   T   T
  0.5456800248380625  0.4493490283233875  0.5000058712088121   T   T   T
 
  0.00000000E+00  0.00000000E+00  0.00000000E+00
  0.00000000E+00  0.00000000E+00  0.00000000E+00
  0.00000000E+00  0.00000000E+00  0.00000000E+00
  0.00000000E+00  0.00000000E+00  0.00000000E+00
  0.00000000E+00  0.00000000E+00  0.00000000E+00
  0.00000000E+00  0.00000000E+00  0.00000000E+00
  0.00000000E+00  0.00000000E+00  0.00000000E+00
  0.00000000E+00  0.00000000E+00  0.00000000E+00
  0.00000000E+00  0.00000000E+00  0.00000000E+00
  0.00000000E+00  0.00000000E+00  0.00000000E+00
  0.00000000E+00  0.00000000E+00  0.00000000E+00
  0.00000000E+00  0.00000000E+00  0.00000000E+00
  0.00000000E+00  0.00000000E+00  0.00000000E+00
  0.00000000E+00  0.00000000E+00  0.00000000E+00
  0.00000000E+00  0.00000000E+00  0.00000000E+00
  0.00000000E+00  0.00000000E+00  0.00000000E+00
  0.00000000E+00  0.00000000E+00  0.00000000E+00
  0.00000000E+00  0.00000000E+00  0.00000000E+00
  0.00000000E+00  0.00000000E+00  0.00000000E+00
  0.00000000E+00  0.00000000E+00  0.00000000E+00
  0.00000000E+00  0.00000000E+00  0.00000000E+00
  0.00000000E+00  0.00000000E+00  0.00000000E+00
