!r2SCANh aug-cc-pVTZ d3 TightSCF SlowConv RIJCOSX defgrid2
 
%pal
nprocs 4
end
 
%scf
MaxIter 1500
end
 
%maxcore 3000
 
!CPCM
%cpcm smd true
SMDsolvent "MeCN"
surfacetype gepol_ses
rsolv 2.19
end 
 
* xyz 0 1
C           0.49470507986689     -1.28935631990851      0.00010874258042
C           1.40908641826733     -0.22147183581534      0.00012909194558
C           0.87652773876151      1.07792685723328      0.00000492945569
C          -0.49469394553322      1.28942538906843     -0.00011206028261
C          -1.40907528767924      0.22153956382169     -0.00008845068658
C          -0.87651553070888     -1.07785825260461     -0.00000990536767
H          -1.54545333719204     -1.94291362486448     -0.00009686185205
C          -2.84456825365451      0.51115677736565     -0.00016134460175
C          -3.85777664336290     -0.37016514253978      0.00069395658741
C          -5.30325422186199     -0.00132827117349      0.00054902064982
H          -5.82268564165386     -0.41483693779544     -0.88475753685959
H          -5.44363484922644      1.09278775657122     -0.00048184652449
H          -5.82242918676140     -0.41313393815800      0.88680059997485
H          -3.63558487599837     -1.44572430894995      0.00161496983067
H          -3.09792946711740      1.58024959925667     -0.00095926539794
H          -0.87860533471525      2.31485410603895     -0.00020323655719
H           1.54546492447861      1.94298328215137     -0.00000160713393
C           2.84457766493005     -0.51109546895278      0.00024640262469
C           3.85779145901576      0.37021961014473      0.00027505555542
C           5.30326751721893      0.00137504492038      0.00037195486634
H           5.82255778844256      0.41418506123902      0.88608667850665
H           5.82258564966444      0.41388438927124     -0.88546931241510
H           5.44364800850219     -1.09274127411065      0.00055173822611
H           3.63560517323574      1.44578042657169      0.00020897424361
H           3.09793184852103     -1.58018954757629      0.00031964622318
H           0.87861580456047     -2.31478514120501      0.00015816640849
*
