C O H                                   
   1.00000000000000     
    40.0000000000000000    0.0000000000000000    0.0000000000000000
     0.0000000000000000   40.0000000000000000    0.0000000000000000
     0.0000000000000000    0.0000000000000000   40.0000000000000000
   C    O    H 
    10     1    12
Selective dynamics
Direct
  0.4857595546316459  0.5200772242320525  0.4999957230450128   T   T   T
  0.4533342738172879  0.5066749555458879  0.4999988881959368   T   T   T
  0.4487221666707519  0.4719373052501200  0.5000015728315921   T   T   T
  0.4770757947847448  0.4512539505338620  0.5000004061560070   T   T   T
  0.5092638604166398  0.4643980965733701  0.4999990489193867   T   T   T
  0.5141056975686692  0.4994151193772501  0.4999960715984911   T   T   T
  0.5471817771344167  0.5153487625466040  0.4999943787783823   T   T   T
  0.5771514424498227  0.5000301939128240  0.5000031885307206   T   T   T
  0.6100034125943635  0.5178439117825748  0.5000001535859654   T   T   T
  0.3942072514027098  0.5173016718669013  0.5000037115100668   T   T   T
  0.4279059219992110  0.5296909745819630  0.4999995808224243   T   T   T
  0.6250400998588209  0.5108390957315717  0.4779838783443117   T   T   T
  0.6250362177433295  0.5108532799432072  0.5220234833362457   T   T   T
  0.6068144754608813  0.5451307403679240  0.4999908302530690   T   T   T
  0.5783635009696293  0.4726782881061808  0.5000116050456215   T   T   T
  0.5467800001709732  0.5427581580651695  0.4999863198215609   T   T   T
  0.5306514853674960  0.4475003449143586  0.4999979917024663   T   T   T
  0.4735982801552596  0.4241871999695946  0.5000020906059792   T   T   T
  0.4238772748591605  0.4608631650339810  0.5000028859358105   T   T   T
  0.3781629639106439  0.5394803049876327  0.5000037724523095   T   T   T
  0.3891591946743536  0.5022590142827450  0.5225040794362418   T   T   T
  0.3891548337525653  0.5022562518502727  0.4775057301979245   T   T   T
  0.4886505196066379  0.5472219905439240  0.4999946088944520   T   T   T
 
  0.00000000E+00  0.00000000E+00  0.00000000E+00
  0.00000000E+00  0.00000000E+00  0.00000000E+00
  0.00000000E+00  0.00000000E+00  0.00000000E+00
  0.00000000E+00  0.00000000E+00  0.00000000E+00
  0.00000000E+00  0.00000000E+00  0.00000000E+00
  0.00000000E+00  0.00000000E+00  0.00000000E+00
  0.00000000E+00  0.00000000E+00  0.00000000E+00
  0.00000000E+00  0.00000000E+00  0.00000000E+00
  0.00000000E+00  0.00000000E+00  0.00000000E+00
  0.00000000E+00  0.00000000E+00  0.00000000E+00
  0.00000000E+00  0.00000000E+00  0.00000000E+00
  0.00000000E+00  0.00000000E+00  0.00000000E+00
  0.00000000E+00  0.00000000E+00  0.00000000E+00
  0.00000000E+00  0.00000000E+00  0.00000000E+00
  0.00000000E+00  0.00000000E+00  0.00000000E+00
  0.00000000E+00  0.00000000E+00  0.00000000E+00
  0.00000000E+00  0.00000000E+00  0.00000000E+00
  0.00000000E+00  0.00000000E+00  0.00000000E+00
  0.00000000E+00  0.00000000E+00  0.00000000E+00
  0.00000000E+00  0.00000000E+00  0.00000000E+00
  0.00000000E+00  0.00000000E+00  0.00000000E+00
  0.00000000E+00  0.00000000E+00  0.00000000E+00
  0.00000000E+00  0.00000000E+00  0.00000000E+00
