!r2SCANh freq aug-cc-pVTZ d3 TightSCF SlowConv RIJCOSX defgrid2

%pal
nprocs 12
end

%scf
MaxIter 1500
end

%maxcore 5000

!CPCM
%cpcm smd true
SMDsolvent "MeCN"
surfacetype gepol_ses
rsolv 2.19
end 

* xyz 0 1
  C           1.34915852264664     -0.64300621180902      0.80818493401328
  C           2.59485029966293     -1.25160741685833      0.85831746015967
  C           3.67079064962396     -0.72204491868906      0.15678072362348
  C           3.49516304075797      0.42944768047286     -0.59933073771954
  C           2.25331463631215      1.04522385343153     -0.66404605490708
  C           1.18741599206017      0.50206651501205      0.03843363476087
  O          -0.00001383458117      1.19367458439710      0.00029453724054
  C          -1.18740109143476      0.50210314935010     -0.03817262075775
  C          -2.25353736324760      1.04531271789115      0.66393611087714
  C          -3.49537471753594      0.42954621633070      0.59886197482302
  C          -3.67078813196376     -0.72202515894951     -0.15717626236545
  C          -2.59462066901919     -1.25171769646596     -0.85825930726846
  C          -1.34895145225183     -0.64310445064356     -0.80778099458062
  H          -0.51415742679117     -1.05093619111795     -1.36029428658851
  H          -2.72311753776290     -2.14338066960328     -1.45712864582668
  H          -4.63846280337099     -1.20210594600365     -0.20249370155078
  H          -4.32654812874149      0.85219901789851      1.14709057898523
  H          -2.10110635885699      1.94107627278992      1.24998950616485
  H           2.10071187023206      1.94096301016689     -1.25009600620761
  H           4.32617718691399      0.85204720681236     -1.14784845485140
  H           4.63847734870724     -1.20212948595953      0.20185927706450
  H           2.72356210385392     -2.14318015474008      1.45728252616533
  H           0.51450616478681     -1.05066612371322      1.36105550874597
*
