C N H                                   
   1.00000000000000     
    40.0000000000000000    0.0000000000000000    0.0000000000000000
     0.0000000000000000   40.0000000000000000    0.0000000000000000
     0.0000000000000000    0.0000000000000000   40.0000000000000000
   C    N    H 
     6     1     7
Selective dynamics
Direct
  0.4948516796476575  0.4696897854315719  0.5008451082054232   T   T   T
  0.5297280438629355  0.4698619288506276  0.5008577350902479   T   T   T
  0.5475653245276606  0.4999990000000025  0.5008635312144298   T   T   T
  0.5297280438629355  0.5301370711493678  0.5008577350902479   T   T   T
  0.4948526796476550  0.5303102145684281  0.5008451082054232   T   T   T
  0.4767424487034693  0.5000000000000000  0.5008000666832729   T   T   T
  0.4420828758555351  0.5000009999999975  0.5020720730088134   T   T   T
  0.4304453371526712  0.5212032670757032  0.4944024635459507   T   T   T
  0.4304443371526737  0.4787987329242990  0.4944024635459507   T   T   T
  0.4812451323346186  0.5539883649672371  0.5008352198848099   T   T   T
  0.5431227108500043  0.5539246005802850  0.5007865497367239   T   T   T
  0.5748255432175271  0.4999990000000025  0.5008111761671558   T   T   T
  0.5431217108500068  0.4460743994197033  0.5007865497367239   T   T   T
  0.4812431323346237  0.4460116350327628  0.5008352198848099   T   T   T
 
  0.00000000E+00  0.00000000E+00  0.00000000E+00
  0.00000000E+00  0.00000000E+00  0.00000000E+00
  0.00000000E+00  0.00000000E+00  0.00000000E+00
  0.00000000E+00  0.00000000E+00  0.00000000E+00
  0.00000000E+00  0.00000000E+00  0.00000000E+00
  0.00000000E+00  0.00000000E+00  0.00000000E+00
  0.00000000E+00  0.00000000E+00  0.00000000E+00
  0.00000000E+00  0.00000000E+00  0.00000000E+00
  0.00000000E+00  0.00000000E+00  0.00000000E+00
  0.00000000E+00  0.00000000E+00  0.00000000E+00
  0.00000000E+00  0.00000000E+00  0.00000000E+00
  0.00000000E+00  0.00000000E+00  0.00000000E+00
  0.00000000E+00  0.00000000E+00  0.00000000E+00
  0.00000000E+00  0.00000000E+00  0.00000000E+00
