!r2SCAN freq aug-cc-pVTZ d3 TightSCF SlowConv RIJCOSX defgrid2

%pal
nprocs 12
end

%scf
MaxIter 1500
end

%maxcore 5000

!CPCM
%cpcm smd true
SMDsolvent "MeCN"
surfacetype gepol_ses
rsolv 2.19
end 

* xyz 0 1
C          -1.15520576817722     -1.24282114521535     -0.00042093502804
C          -2.50764711576669     -0.94872253319885      0.00007600510219
C          -2.93209469268440      0.37833527498187      0.00032455854281
C          -2.00088555260279      1.41242812801413     -0.00032279006711
C          -0.64350304741829      1.12836440600325     -0.00078848010017
C          -0.21392785621078     -0.20172145215226     -0.00061859218853
C           1.19550129121474     -0.60308867883954     -0.00022355226584
O           1.63565767944443     -1.70885330050475     -0.00355150219222
Cl          2.39447036757714      0.78901406369638      0.00650774005683
H           0.07735277694195      1.93340405779548     -0.00161057663526
H          -2.33246735768450      2.44306644038725      0.00033511135966
H          -3.99128776368094      0.60562126858461      0.00120241155643
H          -3.23314152863682     -1.75254715922391      0.00029048464018
H          -0.81349863231581     -2.26954537032830     -0.00070518278093
*
