C O H                                   
   1.00000000000000     
    40.0000000000000000    0.0000000000000000    0.0000000000000000
     0.0000000000000000   40.0000000000000000    0.0000000000000000
     0.0000000000000000    0.0000000000000000   40.0000000000000000
   C    O    H 
    12     1    10
Selective dynamics
Direct
  0.5341197367560306  0.4869214777275702  0.5196623129885494   T   T   T
  0.5654089162086787  0.4719491570434114  0.5208781459881859   T   T   T
  0.5923398775224038  0.4857466132026118  0.5038095591642862   T   T   T
  0.5877962904872090  0.5148732070891329  0.4854457128217965   T   T   T
  0.5565921611251585  0.5300083573401526  0.4838483817099332   T   T   T
  0.5298655002373486  0.5158725945890651  0.5009205757528726   T   T   T
  0.4701342349730532  0.5158700687219905  0.4990812950186756   T   T   T
  0.4434052096902064  0.5300062833311134  0.5161503613507534   T   T   T
  0.4122017517658171  0.5148718472558771  0.5145504054492741   T   T   T
  0.4076594305854560  0.4857432457885451  0.4961881776880075   T   T   T
  0.4345939305875636  0.4719452838584031  0.4791228957276122   T   T   T
  0.4658813520453525  0.4869179516609351  0.4803420311831079   T   T   T
  0.4999994448246667  0.5329176950622518  0.5000016733125818   T   T   T
  0.4867628274478150  0.4762434198544637  0.4668295789810432   T   T   T
  0.4312980998512139  0.4493638648710733  0.4645133880737508   T   T   T
  0.3833122063854338  0.4739276935450346  0.4951139465443338   T   T   T
  0.3913635675631556  0.5259396778252972  0.5278933002481883   T   T   T
  0.4472332267745191  0.5526971968866582  0.5304239685940584   T   T   T
  0.5527621343288540  0.5526963815195919  0.4695717250727739   T   T   T
  0.6086323266641839  0.5259395370756985  0.4721000488636016   T   T   T
  0.6166883693382839  0.4739315592654148  0.5048827581111178   T   T   T
  0.5687062660089928  0.4493696625554752  0.5354899846870292   T   T   T
  0.5132411388286087  0.4762482239302001  0.5331787726684620   T   T   T
 
  0.00000000E+00  0.00000000E+00  0.00000000E+00
  0.00000000E+00  0.00000000E+00  0.00000000E+00
  0.00000000E+00  0.00000000E+00  0.00000000E+00
  0.00000000E+00  0.00000000E+00  0.00000000E+00
  0.00000000E+00  0.00000000E+00  0.00000000E+00
  0.00000000E+00  0.00000000E+00  0.00000000E+00
  0.00000000E+00  0.00000000E+00  0.00000000E+00
  0.00000000E+00  0.00000000E+00  0.00000000E+00
  0.00000000E+00  0.00000000E+00  0.00000000E+00
  0.00000000E+00  0.00000000E+00  0.00000000E+00
  0.00000000E+00  0.00000000E+00  0.00000000E+00
  0.00000000E+00  0.00000000E+00  0.00000000E+00
  0.00000000E+00  0.00000000E+00  0.00000000E+00
  0.00000000E+00  0.00000000E+00  0.00000000E+00
  0.00000000E+00  0.00000000E+00  0.00000000E+00
  0.00000000E+00  0.00000000E+00  0.00000000E+00
  0.00000000E+00  0.00000000E+00  0.00000000E+00
  0.00000000E+00  0.00000000E+00  0.00000000E+00
  0.00000000E+00  0.00000000E+00  0.00000000E+00
  0.00000000E+00  0.00000000E+00  0.00000000E+00
  0.00000000E+00  0.00000000E+00  0.00000000E+00
  0.00000000E+00  0.00000000E+00  0.00000000E+00
  0.00000000E+00  0.00000000E+00  0.00000000E+00
