C N H                                   
   1.00000000000000     
    40.0000000000000000    0.0000000000000000    0.0000000000000000
     0.0000000000000000   40.0000000000000000    0.0000000000000000
     0.0000000000000000    0.0000000000000000   40.0000000000000000
   C    N    H 
     8     1    11
Selective dynamics
Direct
  0.4801289677591672  0.5308171312975191  0.5001144875277499   T   T   T
  0.4456206669686466  0.5304809878037928  0.5003258696588992   T   T   T
  0.4280734432539695  0.5000017384078601  0.5004473770836491   T   T   T
  0.4456199497480335  0.4695223008954177  0.5003193600097076   T   T   T
  0.4801260680900906  0.4691837759788353  0.5001108476821274   T   T   T
  0.4982570272757750  0.4999994317707250  0.4999903017954516   T   T   T
  0.5511698779667293  0.5313269139875536  0.4996947156669626   T   T   T
  0.5511697927743563  0.4686705914175419  0.4997028245659154   T   T   T
  0.5323030105092774  0.4999992856349977  0.4997749203080086   T   T   T
  0.5778594187043570  0.5257020089839426  0.4994851028401924   T   T   T
  0.5449561233776601  0.5461349175198140  0.4774182688189698   T   T   T
  0.5452918843107564  0.5460213192532687  0.5221415345441990   T   T   T
  0.5778586097221434  0.4742937073144397  0.4995115825270815   T   T   T
  0.5452754347289654  0.4539740139742500  0.5221459668492049   T   T   T
  0.5449678328284305  0.4538648706434992  0.4774226379936808   T   T   T
  0.4932692257145684  0.4453918138474771  0.5000052668251198   T   T   T
  0.4319690711985332  0.4459673556312292  0.5003879267967746   T   T   T
  0.4008410798628972  0.5000025830665894  0.5005851498282995   T   T   T
  0.4319718489445910  0.5540367468292060  0.5004002941188073   T   T   T
  0.4932716662610350  0.5546075057420505  0.5000165645592036   T   T   T
 
  0.00000000E+00  0.00000000E+00  0.00000000E+00
  0.00000000E+00  0.00000000E+00  0.00000000E+00
  0.00000000E+00  0.00000000E+00  0.00000000E+00
  0.00000000E+00  0.00000000E+00  0.00000000E+00
  0.00000000E+00  0.00000000E+00  0.00000000E+00
  0.00000000E+00  0.00000000E+00  0.00000000E+00
  0.00000000E+00  0.00000000E+00  0.00000000E+00
  0.00000000E+00  0.00000000E+00  0.00000000E+00
  0.00000000E+00  0.00000000E+00  0.00000000E+00
  0.00000000E+00  0.00000000E+00  0.00000000E+00
  0.00000000E+00  0.00000000E+00  0.00000000E+00
  0.00000000E+00  0.00000000E+00  0.00000000E+00
  0.00000000E+00  0.00000000E+00  0.00000000E+00
  0.00000000E+00  0.00000000E+00  0.00000000E+00
  0.00000000E+00  0.00000000E+00  0.00000000E+00
  0.00000000E+00  0.00000000E+00  0.00000000E+00
  0.00000000E+00  0.00000000E+00  0.00000000E+00
  0.00000000E+00  0.00000000E+00  0.00000000E+00
  0.00000000E+00  0.00000000E+00  0.00000000E+00
  0.00000000E+00  0.00000000E+00  0.00000000E+00
