C H                                     
   1.00000000000000     
    40.0000000000000000    0.0000000000000000    0.0000000000000000
     0.0000000000000000   40.0000000000000000    0.0000000000000000
     0.0000000000000000    0.0000000000000000   40.0000000000000000
   C    H 
    14    10
Selective dynamics
Direct
  0.6032525976319221  0.5301513074395661  0.5000030967179653   T   T   T
  0.6207422337983485  0.5000016891356129  0.4999954672786025   T   T   T
  0.6032562626355672  0.4698509200666868  0.4999886442348049   T   T   T
  0.5685495395999086  0.4697030136840488  0.4999947821037835   T   T   T
  0.5506420628039368  0.4999979639582101  0.5000051066105935   T   T   T
  0.5685477865707819  0.5302959677759341  0.5000083795136228   T   T   T
  0.5151953347429149  0.4999979307545288  0.5000059612747839   T   T   T
  0.4848033683070357  0.4999975697822017  0.5000034704101104   T   T   T
  0.4493570904850945  0.4999975360285415  0.5000072588416867   T   T   T
  0.4314508315647201  0.4697021630459405  0.5000104146211157   T   T   T
  0.3967436620606662  0.4698513660887871  0.5000062866665702   T   T   T
  0.3792581665552924  0.5000016447685409  0.4999973872342734   T   T   T
  0.3967479930535740  0.5301506115119785  0.4999903159912638   T   T   T
  0.4314518708320546  0.5302952046117055  0.4999961223276378   T   T   T
  0.5549649498911067  0.5537450325066309  0.5000138697791923   T   T   T
  0.4450356363560977  0.5537449552503051  0.4999912764312175   T   T   T
  0.3832842599131095  0.5536846672834801  0.4999857713260346   T   T   T
  0.3521583001119508  0.5000028279769626  0.4999940239997262   T   T   T
  0.3832788307487233  0.4463182602033002  0.5000099482349811   T   T   T
  0.4450295269188922  0.4462516694727076  0.5000174948514309   T   T   T
  0.5549699835407628  0.4462516211513059  0.4999889356523617   T   T   T
  0.6167210152955052  0.4463181304951549  0.4999846212245447   T   T   T
  0.6478418472655741  0.5000032128618169  0.4999944341330873   T   T   T
  0.6167158493164775  0.5536847341460593  0.5000079305406014   T   T   T
 
  0.00000000E+00  0.00000000E+00  0.00000000E+00
  0.00000000E+00  0.00000000E+00  0.00000000E+00
  0.00000000E+00  0.00000000E+00  0.00000000E+00
  0.00000000E+00  0.00000000E+00  0.00000000E+00
  0.00000000E+00  0.00000000E+00  0.00000000E+00
  0.00000000E+00  0.00000000E+00  0.00000000E+00
  0.00000000E+00  0.00000000E+00  0.00000000E+00
  0.00000000E+00  0.00000000E+00  0.00000000E+00
  0.00000000E+00  0.00000000E+00  0.00000000E+00
  0.00000000E+00  0.00000000E+00  0.00000000E+00
  0.00000000E+00  0.00000000E+00  0.00000000E+00
  0.00000000E+00  0.00000000E+00  0.00000000E+00
  0.00000000E+00  0.00000000E+00  0.00000000E+00
  0.00000000E+00  0.00000000E+00  0.00000000E+00
  0.00000000E+00  0.00000000E+00  0.00000000E+00
  0.00000000E+00  0.00000000E+00  0.00000000E+00
  0.00000000E+00  0.00000000E+00  0.00000000E+00
  0.00000000E+00  0.00000000E+00  0.00000000E+00
  0.00000000E+00  0.00000000E+00  0.00000000E+00
  0.00000000E+00  0.00000000E+00  0.00000000E+00
  0.00000000E+00  0.00000000E+00  0.00000000E+00
  0.00000000E+00  0.00000000E+00  0.00000000E+00
  0.00000000E+00  0.00000000E+00  0.00000000E+00
  0.00000000E+00  0.00000000E+00  0.00000000E+00
