C N O H                                 
   1.00000000000000     
    40.0000000000000000    0.0000000000000000    0.0000000000000000
     0.0000000000000000   40.0000000000000000    0.0000000000000000
     0.0000000000000000    0.0000000000000000   40.0000000000000000
   C    N    O    H 
     8     1     3     7
Selective dynamics
Direct
  0.5013342751336655  0.4634200330995503  0.4999819540848327   T   T   T
  0.4666305047740789  0.4633676506117114  0.5000078276375544   T   T   T
  0.4499902583708785  0.4940740333221568  0.5000465413934860   T   T   T
  0.4669767900734614  0.5245331643664252  0.5000528449588967   T   T   T
  0.5017904075844003  0.5241339134934437  0.5000173428994037   T   T   T
  0.5192518039455422  0.4936490982215752  0.4999813669364441   T   T   T
  0.5568089271642677  0.4920883138152097  0.4999491392600829   T   T   T
  0.5764115923734436  0.5241909810870184  0.4999366951553255   T   T   T
  0.4132170486306785  0.4942580575495846  0.5000693599578671   T   T   T
  0.5709759335289819  0.4646487635043505  0.4999438392738175   T   T   T
  0.3987129741810797  0.5217248473061621  0.5000964798099600   T   T   T
  0.3984699561459696  0.4669170133312596  0.5000617522874465   T   T   T
  0.5702412624825619  0.5392879834645766  0.5220642232854770   T   T   T
  0.6031619917170642  0.5185147837734282  0.4998741707877393   T   T   T
  0.5701443655550026  0.5393429608494628  0.4778760558796494   T   T   T
  0.5151618902709376  0.5478258620042419  0.5000167262086255   T   T   T
  0.4531132665998023  0.5479063770757834  0.5000713994743006   T   T   T
  0.4524828893686800  0.4401650959593750  0.4999978690071648   T   T   T
  0.5151228620995054  0.4399550671646887  0.4999534117019360   T   T   T
 
  0.00000000E+00  0.00000000E+00  0.00000000E+00
  0.00000000E+00  0.00000000E+00  0.00000000E+00
  0.00000000E+00  0.00000000E+00  0.00000000E+00
  0.00000000E+00  0.00000000E+00  0.00000000E+00
  0.00000000E+00  0.00000000E+00  0.00000000E+00
  0.00000000E+00  0.00000000E+00  0.00000000E+00
  0.00000000E+00  0.00000000E+00  0.00000000E+00
  0.00000000E+00  0.00000000E+00  0.00000000E+00
  0.00000000E+00  0.00000000E+00  0.00000000E+00
  0.00000000E+00  0.00000000E+00  0.00000000E+00
  0.00000000E+00  0.00000000E+00  0.00000000E+00
  0.00000000E+00  0.00000000E+00  0.00000000E+00
  0.00000000E+00  0.00000000E+00  0.00000000E+00
  0.00000000E+00  0.00000000E+00  0.00000000E+00
  0.00000000E+00  0.00000000E+00  0.00000000E+00
  0.00000000E+00  0.00000000E+00  0.00000000E+00
  0.00000000E+00  0.00000000E+00  0.00000000E+00
  0.00000000E+00  0.00000000E+00  0.00000000E+00
  0.00000000E+00  0.00000000E+00  0.00000000E+00
