C H                                     
   1.00000000000000     
    40.0000000000000000    0.0000000000000000    0.0000000000000000
     0.0000000000000000   40.0000000000000000    0.0000000000000000
     0.0000000000000000    0.0000000000000000   40.0000000000000000
   C    H 
     8    10
Selective dynamics
Direct
  0.4702286149666648  0.4682313409044880  0.5007650820478062   T   T   T
  0.5001451225284157  0.4506066051051576  0.5000522766272795   T   T   T
  0.5299701838031154  0.4684061341360319  0.4993787539050984   T   T   T
  0.5303170825491250  0.5047302496757808  0.4997389009948705   T   T   T
  0.5628823481061005  0.5221958424210342  0.4991457377111459   T   T   T
  0.4999585697133568  0.5218976492280873  0.5003863744410211   T   T   T
  0.4696997853824243  0.5045499567785185  0.5007640861497791   T   T   T
  0.4369984127812856  0.5217359355485769  0.5009840717952869   T   T   T
  0.5604841654911255  0.5492255998785964  0.5025433669096770   T   T   T
  0.5798958516087609  0.5117711406277152  0.5181536478597195   T   T   T
  0.5755089392898753  0.5173658842040041  0.4750272439657124   T   T   T
  0.4392708053402359  0.5489508360790225  0.5023211398469414   T   T   T
  0.4214781758894617  0.5126165293080192  0.5218771071519015   T   T   T
  0.4227850970679512  0.5149480975257461  0.4782798038105227   T   T   T
  0.4998843336313996  0.5491553452346167  0.5005972770333074   T   T   T
  0.5538526815238853  0.4552485437690663  0.4986284823615250   T   T   T
  0.5002272234311533  0.4234056382951366  0.5000077411738459   T   T   T
  0.4464126068956631  0.4549576712804111  0.5013499062145428   T   T   T
 
  0.00000000E+00  0.00000000E+00  0.00000000E+00
  0.00000000E+00  0.00000000E+00  0.00000000E+00
  0.00000000E+00  0.00000000E+00  0.00000000E+00
  0.00000000E+00  0.00000000E+00  0.00000000E+00
  0.00000000E+00  0.00000000E+00  0.00000000E+00
  0.00000000E+00  0.00000000E+00  0.00000000E+00
  0.00000000E+00  0.00000000E+00  0.00000000E+00
  0.00000000E+00  0.00000000E+00  0.00000000E+00
  0.00000000E+00  0.00000000E+00  0.00000000E+00
  0.00000000E+00  0.00000000E+00  0.00000000E+00
  0.00000000E+00  0.00000000E+00  0.00000000E+00
  0.00000000E+00  0.00000000E+00  0.00000000E+00
  0.00000000E+00  0.00000000E+00  0.00000000E+00
  0.00000000E+00  0.00000000E+00  0.00000000E+00
  0.00000000E+00  0.00000000E+00  0.00000000E+00
  0.00000000E+00  0.00000000E+00  0.00000000E+00
  0.00000000E+00  0.00000000E+00  0.00000000E+00
  0.00000000E+00  0.00000000E+00  0.00000000E+00
