C N O H                                 
   1.00000000000000     
    40.0000000000000000    0.0000000000000000    0.0000000000000000
     0.0000000000000000   40.0000000000000000    0.0000000000000000
     0.0000000000000000    0.0000000000000000   40.0000000000000000
   C    N    O    H 
     8     1     3     7
Selective dynamics
Direct
  0.5011539536968719  0.4632982826366743  0.4999851070874252   T   T   T
  0.4666663947195329  0.4632932395222600  0.5000077264029062   T   T   T
  0.4489954302337690  0.4940752904762695  0.5000335723460353   T   T   T
  0.4671458563296588  0.5245443427521178  0.5000361938822810   T   T   T
  0.5017455207812881  0.5240516230655718  0.5000171931438205   T   T   T
  0.5198882602671102  0.4935044397466213  0.4999858961663289   T   T   T
  0.5564609616077614  0.4919887202837196  0.4999590785368058   T   T   T
  0.5762798897311258  0.5243491881947367  0.4999387033507858   T   T   T
  0.4139217505857624  0.4942748768585211  0.5000612420422766   T   T   T
  0.5717586233251211  0.4645565315253977  0.4999557673839793   T   T   T
  0.3982571838172562  0.5223883477721114  0.5000820158089307   T   T   T
  0.3979603520640516  0.4663198545269177  0.5000649213893873   T   T   T
  0.5704716731325784  0.5396148063344490  0.5220874059758802   T   T   T
  0.6030345076598538  0.5184606034449960  0.4998781271709608   T   T   T
  0.5703724987594131  0.5396674935850850  0.4778539724477558   T   T   T
  0.5150544682660326  0.5478495831452043  0.5000225911158405   T   T   T
  0.4534469028118232  0.5480518892964061  0.5000625232665914   T   T   T
  0.4525778427271826  0.4400165063313320  0.5000050513422069   T   T   T
  0.5148069294838100  0.4396983805016264  0.4999619111397974   T   T   T
 
  0.00000000E+00  0.00000000E+00  0.00000000E+00
  0.00000000E+00  0.00000000E+00  0.00000000E+00
  0.00000000E+00  0.00000000E+00  0.00000000E+00
  0.00000000E+00  0.00000000E+00  0.00000000E+00
  0.00000000E+00  0.00000000E+00  0.00000000E+00
  0.00000000E+00  0.00000000E+00  0.00000000E+00
  0.00000000E+00  0.00000000E+00  0.00000000E+00
  0.00000000E+00  0.00000000E+00  0.00000000E+00
  0.00000000E+00  0.00000000E+00  0.00000000E+00
  0.00000000E+00  0.00000000E+00  0.00000000E+00
  0.00000000E+00  0.00000000E+00  0.00000000E+00
  0.00000000E+00  0.00000000E+00  0.00000000E+00
  0.00000000E+00  0.00000000E+00  0.00000000E+00
  0.00000000E+00  0.00000000E+00  0.00000000E+00
  0.00000000E+00  0.00000000E+00  0.00000000E+00
  0.00000000E+00  0.00000000E+00  0.00000000E+00
  0.00000000E+00  0.00000000E+00  0.00000000E+00
  0.00000000E+00  0.00000000E+00  0.00000000E+00
  0.00000000E+00  0.00000000E+00  0.00000000E+00
