C N S H                                 
   1.00000000000000     
    40.0000000000000000    0.0000000000000000    0.0000000000000000
     0.0000000000000000   40.0000000000000000    0.0000000000000000
     0.0000000000000000    0.0000000000000000   40.0000000000000000
   C    N    S    H 
    16     3     1    18
Selective dynamics
Direct
  0.4660006096291482  0.5048036689710145  0.4999118031227283   T   T   T
  0.4344260491118987  0.5190631568860837  0.4998219974159923   T   T   T
  0.4053162951106515  0.4987833693284074  0.4997036197572342   T   T   T
  0.4095937868627146  0.4630989950381235  0.4997224891283665   T   T   T
  0.4408281502780937  0.4491877632337093  0.4998076799334541   T   T   T
  0.4705702282118764  0.4690109471822694  0.4999013209972247   T   T   T
  0.5294305331368250  0.4690153402108308  0.5000941427039649   T   T   T
  0.5591739279509227  0.4491926636069721  0.5001786633328180   T   T   T
  0.5904100806626573  0.4631063220607103  0.5002696632405161   T   T   T
  0.5946843899039465  0.4987908749593046  0.5003128156413510   T   T   T
  0.5655719022790180  0.5190683999319532  0.5002105214168466   T   T   T
  0.5339981724820078  0.5048081352480835  0.5001121645292059   T   T   T
  0.6294941076693021  0.5489799463107730  0.5004703457440201   T   T   T
  0.6555906204889865  0.4917925715747771  0.5005129607347101   T   T   T
  0.3444100640370920  0.4917851508429720  0.4994908047038322   T   T   T
  0.3705034631377799  0.5489743011967434  0.4995224742756008   T   T   T
  0.5000020758250017  0.4529879655073330  0.4999901958560073   T   T   T
  0.6255793304265183  0.5126671629466699  0.5004439216384355   T   T   T
  0.3744195357117590  0.5126609785462435  0.4995778572644340   T   T   T
  0.4999979918315134  0.5315722304517863  0.5000113902845627   T   T   T
  0.4440652398224643  0.4221321853290121  0.4997990615495027   T   T   T
  0.5677861674623301  0.5461858964566488  0.5002367377140686   T   T   T
  0.6181861536120081  0.5601812275439784  0.4780293754100313   T   T   T
  0.6179377018823118  0.5601707409888164  0.5227887001345266   T   T   T
  0.6561134552767882  0.5551165206579682  0.5006227278522388   T   T   T
  0.6775949342497256  0.5079905680218602  0.5006600134611574   T   T   T
  0.6565594775763302  0.4758006895094979  0.5228567061929184   T   T   T
  0.6567555188112522  0.4759348205327072  0.4780820818655513   T   T   T
  0.6121848978327620  0.4468363046479240  0.5003408066433153   T   T   T
  0.5559372801006788  0.4221377137847071  0.5001580200736413   T   T   T
  0.3878169022153770  0.4468300029662871  0.4996351476326808   T   T   T
  0.3432709784947789  0.4758743439494921  0.5218848464425392   T   T   T
  0.3434158111490646  0.4758456435077818  0.4771093154663077   T   T   T
  0.3224036420772833  0.5079821781025800  0.4994087213374314   T   T   T
  0.3818207428231446  0.5601933838257906  0.5219493249097269   T   T   T
  0.3820527420913322  0.5601461094492777  0.4771905541512709   T   T   T
  0.3438840946649506  0.5551110475247683  0.4993765674593078   T   T   T
  0.4322129451097112  0.5461806791661417  0.4998074599825060   T   T   T
 
  0.00000000E+00  0.00000000E+00  0.00000000E+00
  0.00000000E+00  0.00000000E+00  0.00000000E+00
  0.00000000E+00  0.00000000E+00  0.00000000E+00
  0.00000000E+00  0.00000000E+00  0.00000000E+00
  0.00000000E+00  0.00000000E+00  0.00000000E+00
  0.00000000E+00  0.00000000E+00  0.00000000E+00
  0.00000000E+00  0.00000000E+00  0.00000000E+00
  0.00000000E+00  0.00000000E+00  0.00000000E+00
  0.00000000E+00  0.00000000E+00  0.00000000E+00
  0.00000000E+00  0.00000000E+00  0.00000000E+00
  0.00000000E+00  0.00000000E+00  0.00000000E+00
  0.00000000E+00  0.00000000E+00  0.00000000E+00
  0.00000000E+00  0.00000000E+00  0.00000000E+00
  0.00000000E+00  0.00000000E+00  0.00000000E+00
  0.00000000E+00  0.00000000E+00  0.00000000E+00
  0.00000000E+00  0.00000000E+00  0.00000000E+00
  0.00000000E+00  0.00000000E+00  0.00000000E+00
  0.00000000E+00  0.00000000E+00  0.00000000E+00
  0.00000000E+00  0.00000000E+00  0.00000000E+00
  0.00000000E+00  0.00000000E+00  0.00000000E+00
  0.00000000E+00  0.00000000E+00  0.00000000E+00
  0.00000000E+00  0.00000000E+00  0.00000000E+00
  0.00000000E+00  0.00000000E+00  0.00000000E+00
  0.00000000E+00  0.00000000E+00  0.00000000E+00
  0.00000000E+00  0.00000000E+00  0.00000000E+00
  0.00000000E+00  0.00000000E+00  0.00000000E+00
  0.00000000E+00  0.00000000E+00  0.00000000E+00
  0.00000000E+00  0.00000000E+00  0.00000000E+00
  0.00000000E+00  0.00000000E+00  0.00000000E+00
  0.00000000E+00  0.00000000E+00  0.00000000E+00
  0.00000000E+00  0.00000000E+00  0.00000000E+00
  0.00000000E+00  0.00000000E+00  0.00000000E+00
  0.00000000E+00  0.00000000E+00  0.00000000E+00
  0.00000000E+00  0.00000000E+00  0.00000000E+00
  0.00000000E+00  0.00000000E+00  0.00000000E+00
  0.00000000E+00  0.00000000E+00  0.00000000E+00
  0.00000000E+00  0.00000000E+00  0.00000000E+00
  0.00000000E+00  0.00000000E+00  0.00000000E+00
