C H                                     
   1.00000000000000     
    40.0000000000000000    0.0000000000000000    0.0000000000000000
     0.0000000000000000   40.0000000000000000    0.0000000000000000
     0.0000000000000000    0.0000000000000000   40.0000000000000000
   C    H 
    10     8
Selective dynamics
Direct
  0.5605142089857738  0.4823586603616107  0.5000000000000000   T   T   T
  0.5605142089857738  0.5176403396383846  0.5000000000000000   T   T   T
  0.5309560487318189  0.5349481809388698  0.5000000000000000   T   T   T
  0.5000000000000000  0.5178199692980647  0.5000000000000000   T   T   T
  0.4690439512681813  0.5349481809388698  0.5000000000000000   T   T   T
  0.4394857910142260  0.5176413396383892  0.5000000000000000   T   T   T
  0.4394857910142260  0.4823596603616153  0.5000000000000000   T   T   T
  0.4690439512681813  0.4650518190611302  0.5000000000000000   T   T   T
  0.5000000000000000  0.4821800307019355  0.5000000000000000   T   T   T
  0.5309560487318189  0.4650518190611302  0.5000000000000000   T   T   T
  0.5309242743451574  0.4379261827886003  0.5000000000000000   T   T   T
  0.4690747256548448  0.4379271827885978  0.5000000000000000   T   T   T
  0.4159077442961170  0.4689941071984446  0.5000000000000000   T   T   T
  0.4159087442961216  0.5310068928015599  0.5000000000000000   T   T   T
  0.4690757256548422  0.5620738172113995  0.5000000000000000   T   T   T
  0.5309252743451549  0.5620728172114020  0.5000000000000000   T   T   T
  0.5840922557038831  0.5310058928015553  0.5000000000000000   T   T   T
  0.5840912557038785  0.4689931071984401  0.5000000000000000   T   T   T
 
  0.00000000E+00  0.00000000E+00  0.00000000E+00
  0.00000000E+00  0.00000000E+00  0.00000000E+00
  0.00000000E+00  0.00000000E+00  0.00000000E+00
  0.00000000E+00  0.00000000E+00  0.00000000E+00
  0.00000000E+00  0.00000000E+00  0.00000000E+00
  0.00000000E+00  0.00000000E+00  0.00000000E+00
  0.00000000E+00  0.00000000E+00  0.00000000E+00
  0.00000000E+00  0.00000000E+00  0.00000000E+00
  0.00000000E+00  0.00000000E+00  0.00000000E+00
  0.00000000E+00  0.00000000E+00  0.00000000E+00
  0.00000000E+00  0.00000000E+00  0.00000000E+00
  0.00000000E+00  0.00000000E+00  0.00000000E+00
  0.00000000E+00  0.00000000E+00  0.00000000E+00
  0.00000000E+00  0.00000000E+00  0.00000000E+00
  0.00000000E+00  0.00000000E+00  0.00000000E+00
  0.00000000E+00  0.00000000E+00  0.00000000E+00
  0.00000000E+00  0.00000000E+00  0.00000000E+00
  0.00000000E+00  0.00000000E+00  0.00000000E+00
