C O S H                                 
   1.00000000000000     
    40.0000000000000000    0.0000000000000000    0.0000000000000000
     0.0000000000000000   40.0000000000000000    0.0000000000000000
     0.0000000000000000    0.0000000000000000   40.0000000000000000
   C    O    S    H 
    14     2     2    14
Selective dynamics
Direct
  0.5487328136900096  0.5331611356663669  0.5060546898718594   T   T   T
  0.5442932201569476  0.5074496095078428  0.4822300617282873   T   T   T
  0.5702067298900656  0.4857091409365824  0.4754139512848897   T   T   T
  0.6010464173920561  0.4889566499632974  0.4923770287394264   T   T   T
  0.6057658474453322  0.5149970587538024  0.5157790691916254   T   T   T
  0.5798064414692027  0.5370516276672190  0.5222951070731132   T   T   T
  0.6557686146834185  0.4659128780223624  0.5023871105073408   T   T   T
  0.4512707908356094  0.5331813418937386  0.4939089136550941   T   T   T
  0.4557249807609797  0.5074694072995886  0.5177286925107312   T   T   T
  0.4298030056455481  0.4857423956961552  0.5245798033040250   T   T   T
  0.3989521912169544  0.4890016055330295  0.5076467339309363   T   T   T
  0.3942183448863611  0.5150481008048093  0.4842445762619944   T   T   T
  0.4201760977478096  0.5370944271102192  0.4776930990743676   T   T   T
  0.3442304501428749  0.4659634010385065  0.4976534836898953   T   T   T
  0.6242168459567677  0.4657258745972762  0.4847338487074072   T   T   T
  0.3757751056605549  0.4657950901409360  0.5153179515375126   T   T   T
  0.5162096444304588  0.5593117394678158  0.5195841982602013   T   T   T
  0.4837975683953254  0.5592990448762873  0.4803253987813439   T   T   T
  0.5834958888661904  0.5572064194303524  0.5402656998847007   T   T   T
  0.6294870764651135  0.5181273925437622  0.5287041818083905   T   T   T
  0.6516128303529342  0.4633134536307626  0.5294155073233761   T   T   T
  0.6696763464550703  0.4889678730200132  0.4969940077078697   T   T   T
  0.6694371041584082  0.4442348983307798  0.4928694345372133   T   T   T
  0.5670363563479376  0.4653442401070517  0.4575793039912324   T   T   T
  0.5203267933823473  0.5042218590972996  0.4696587558095177   T   T   T
  0.4164729031415558  0.5572476665632059  0.4597307859529877   T   T   T
  0.3704841475002860  0.5181855276736081  0.4713428313057700   T   T   T
  0.3484032316067311  0.4633658798940592  0.4706269986976204   T   T   T
  0.3305683261505291  0.4442881630474089  0.5071597676340551   T   T   T
  0.3303122134126336  0.4890122424079784  0.5030352996248695   T   T   T
  0.4329911184513588  0.4653769563386626  0.5423998292818535   T   T   T
  0.4797015533026465  0.5042368989392355  0.5302608783305072   T   T   T
 
  0.00000000E+00  0.00000000E+00  0.00000000E+00
  0.00000000E+00  0.00000000E+00  0.00000000E+00
  0.00000000E+00  0.00000000E+00  0.00000000E+00
  0.00000000E+00  0.00000000E+00  0.00000000E+00
  0.00000000E+00  0.00000000E+00  0.00000000E+00
  0.00000000E+00  0.00000000E+00  0.00000000E+00
  0.00000000E+00  0.00000000E+00  0.00000000E+00
  0.00000000E+00  0.00000000E+00  0.00000000E+00
  0.00000000E+00  0.00000000E+00  0.00000000E+00
  0.00000000E+00  0.00000000E+00  0.00000000E+00
  0.00000000E+00  0.00000000E+00  0.00000000E+00
  0.00000000E+00  0.00000000E+00  0.00000000E+00
  0.00000000E+00  0.00000000E+00  0.00000000E+00
  0.00000000E+00  0.00000000E+00  0.00000000E+00
  0.00000000E+00  0.00000000E+00  0.00000000E+00
  0.00000000E+00  0.00000000E+00  0.00000000E+00
  0.00000000E+00  0.00000000E+00  0.00000000E+00
  0.00000000E+00  0.00000000E+00  0.00000000E+00
  0.00000000E+00  0.00000000E+00  0.00000000E+00
  0.00000000E+00  0.00000000E+00  0.00000000E+00
  0.00000000E+00  0.00000000E+00  0.00000000E+00
  0.00000000E+00  0.00000000E+00  0.00000000E+00
  0.00000000E+00  0.00000000E+00  0.00000000E+00
  0.00000000E+00  0.00000000E+00  0.00000000E+00
  0.00000000E+00  0.00000000E+00  0.00000000E+00
  0.00000000E+00  0.00000000E+00  0.00000000E+00
  0.00000000E+00  0.00000000E+00  0.00000000E+00
  0.00000000E+00  0.00000000E+00  0.00000000E+00
  0.00000000E+00  0.00000000E+00  0.00000000E+00
  0.00000000E+00  0.00000000E+00  0.00000000E+00
  0.00000000E+00  0.00000000E+00  0.00000000E+00
  0.00000000E+00  0.00000000E+00  0.00000000E+00
