C Cl O H                                
   1.00000000000000     
    40.0000000000000000    0.0000000000000000    0.0000000000000000
     0.0000000000000000   40.0000000000000000    0.0000000000000000
     0.0000000000000000    0.0000000000000000   40.0000000000000000
   C    Cl   O    H 
     7     1     1     5
Selective dynamics
Direct
  0.4966742893004081  0.4687082752587770  0.4999841540338892   T   T   T
  0.4629077886667119  0.4763466931436326  0.4999814899860624   T   T   T
  0.4516176838489443  0.5097547123922723  0.4999965598601506   T   T   T
  0.4758193170145972  0.5354581664154736  0.5000121235827351   T   T   T
  0.5097557543647113  0.5284696179678008  0.5000132424754540   T   T   T
  0.5217124882943907  0.4946642983528164  0.5000022685693750   T   T   T
  0.5556441596031334  0.4844011441074514  0.5000041196946228   T   T   T
  0.5870466941043517  0.5212450171448779  0.5000152098879411   T   T   T
  0.5685455669379138  0.4563224309118610  0.4999973046726325   T   T   T
  0.5278547617652194  0.5488163986074071  0.5000323518881444   T   T   T
  0.4677121249470559  0.5615570592421690  0.5000265079646411   T   T   T
  0.4249886861416456  0.5155604822318551  0.4999936144955157   T   T   T
  0.4447172134734743  0.4559475000890387  0.4999684647987195   T   T   T
  0.5050024715374448  0.4427492041345644  0.4999725880900954   T   T   T
 
  0.00000000E+00  0.00000000E+00  0.00000000E+00
  0.00000000E+00  0.00000000E+00  0.00000000E+00
  0.00000000E+00  0.00000000E+00  0.00000000E+00
  0.00000000E+00  0.00000000E+00  0.00000000E+00
  0.00000000E+00  0.00000000E+00  0.00000000E+00
  0.00000000E+00  0.00000000E+00  0.00000000E+00
  0.00000000E+00  0.00000000E+00  0.00000000E+00
  0.00000000E+00  0.00000000E+00  0.00000000E+00
  0.00000000E+00  0.00000000E+00  0.00000000E+00
  0.00000000E+00  0.00000000E+00  0.00000000E+00
  0.00000000E+00  0.00000000E+00  0.00000000E+00
  0.00000000E+00  0.00000000E+00  0.00000000E+00
  0.00000000E+00  0.00000000E+00  0.00000000E+00
  0.00000000E+00  0.00000000E+00  0.00000000E+00
