C O H                                   
   1.00000000000000     
    40.0000000000000000    0.0000000000000000    0.0000000000000000
     0.0000000000000000   40.0000000000000000    0.0000000000000000
     0.0000000000000000    0.0000000000000000   40.0000000000000000
   C    O    H 
    13     1    10
Selective dynamics
Direct
  0.4384260921230023  0.5299997978004569  0.5061080138052532   T   T   T
  0.4076365834499640  0.5139927159406099  0.5031311772821851   T   T   T
  0.4679147953058944  0.5140253906550427  0.4954904772713036   T   T   T
  0.4659259073474189  0.4819129256621721  0.4813147594254090   T   T   T
  0.4349618442595968  0.4661167333916580  0.4779023638093776   T   T   T
  0.4058459463369672  0.4820066302853334  0.4889607301897598   T   T   T
  0.5001558334123501  0.5327173851058120  0.4981161373570586   T   T   T
  0.5322312680466439  0.5141646377331810  0.5027997628338667   T   T   T
  0.5619004124017337  0.5286157868398433  0.4906239990773429   T   T   T
  0.5925269393764623  0.5127340980902488  0.4955052358276859   T   T   T
  0.5939774702126286  0.4824826687768322  0.5131178697129783   T   T   T
  0.5646648569815795  0.4681593241723689  0.5257013436272260   T   T   T
  0.5338864571886930  0.4837865128721646  0.5204296103724317   T   T   T
  0.5002867066287067  0.5637396738409848  0.4964351992494187   T   T   T
  0.4335782141139859  0.4413500799256980  0.4665837786654379   T   T   T
  0.3817091932064329  0.4695333969701494  0.4864653648739861   T   T   T
  0.4401650351663520  0.5549696303762275  0.5169227819089315   T   T   T
  0.3849404912974919  0.5263691811204652  0.5118099618877636   T   T   T
  0.4885042743589167  0.4695326941211562  0.4723997649729057   T   T   T
  0.5111608087603159  0.4726835306508477  0.5305804445314735   T   T   T
  0.6179777326046789  0.4701307309243674  0.5170560248464682   T   T   T
  0.5657686844370176  0.4447937018946675  0.5396978139187425   T   T   T
  0.5604712691284703  0.5522969529488009  0.4771827776260764   T   T   T
  0.6153851838546913  0.5238878199008994  0.4856646069269317   T   T   T
 
  0.00000000E+00  0.00000000E+00  0.00000000E+00
  0.00000000E+00  0.00000000E+00  0.00000000E+00
  0.00000000E+00  0.00000000E+00  0.00000000E+00
  0.00000000E+00  0.00000000E+00  0.00000000E+00
  0.00000000E+00  0.00000000E+00  0.00000000E+00
  0.00000000E+00  0.00000000E+00  0.00000000E+00
  0.00000000E+00  0.00000000E+00  0.00000000E+00
  0.00000000E+00  0.00000000E+00  0.00000000E+00
  0.00000000E+00  0.00000000E+00  0.00000000E+00
  0.00000000E+00  0.00000000E+00  0.00000000E+00
  0.00000000E+00  0.00000000E+00  0.00000000E+00
  0.00000000E+00  0.00000000E+00  0.00000000E+00
  0.00000000E+00  0.00000000E+00  0.00000000E+00
  0.00000000E+00  0.00000000E+00  0.00000000E+00
  0.00000000E+00  0.00000000E+00  0.00000000E+00
  0.00000000E+00  0.00000000E+00  0.00000000E+00
  0.00000000E+00  0.00000000E+00  0.00000000E+00
  0.00000000E+00  0.00000000E+00  0.00000000E+00
  0.00000000E+00  0.00000000E+00  0.00000000E+00
  0.00000000E+00  0.00000000E+00  0.00000000E+00
  0.00000000E+00  0.00000000E+00  0.00000000E+00
  0.00000000E+00  0.00000000E+00  0.00000000E+00
  0.00000000E+00  0.00000000E+00  0.00000000E+00
  0.00000000E+00  0.00000000E+00  0.00000000E+00
