C O H                                   
   1.00000000000000     
    40.0000000000000000    0.0000000000000000    0.0000000000000000
     0.0000000000000000   40.0000000000000000    0.0000000000000000
     0.0000000000000000    0.0000000000000000   40.0000000000000000
   C    O    H 
    12     1    10
Selective dynamics
Direct
  0.5335036975555951  0.4843572320584215  0.5170708715573724   T   T   T
  0.5648330815191969  0.4696074715071248  0.5174591824492367   T   T   T
  0.5920672972437657  0.4856201652751437  0.5020965194367903   T   T   T
  0.5881414459453538  0.5171217046650369  0.4868571675661926   T   T   T
  0.5571880702989347  0.5325835097647342  0.4865713632817616   T   T   T
  0.5298662513690715  0.5156050320125729  0.5009469242143751   T   T   T
  0.4701356170591140  0.5156135970162481  0.4990468260938812   T   T   T
  0.4428171896913824  0.5325951466149874  0.5134283515261231   T   T   T
  0.4118603822506728  0.5171368016488387  0.5131471630543132   T   T   T
  0.4079319769479710  0.4856388902848465  0.4979078737793472   T   T   T
  0.4351599855467114  0.4696204659053862  0.4825422781710742   T   T   T
  0.4664917363405152  0.4843663671805558  0.4829225360219667   T   T   T
  0.5000042198920482  0.5321854229748411  0.4999973713583756   T   T   T
  0.4875941834275679  0.4730999867036374  0.4699037324163342   T   T   T
  0.4316141208270778  0.4458587026977980  0.4697369189252285   T   T   T
  0.3834001304655672  0.4738323339460777  0.4974695448890856   T   T   T
  0.3905131479936017  0.5293548666214889  0.5248147467354514   T   T   T
  0.4468769904980832  0.5568659465253205  0.5250701075145443   T   T   T
  0.5531354536309792  0.5568547799456098  0.4749271388986358   T   T   T
  0.6094955115626490  0.5293320143124802  0.4751907075399373   T   T   T
  0.6165974645355661  0.4738094944209337  0.5025386715524576   T   T   T
  0.5683723334076234  0.4458455850767891  0.5302641010542573   T   T   T
  0.5123977119909711  0.4730954828410674  0.5300889019632606   T   T   T
 
  0.00000000E+00  0.00000000E+00  0.00000000E+00
  0.00000000E+00  0.00000000E+00  0.00000000E+00
  0.00000000E+00  0.00000000E+00  0.00000000E+00
  0.00000000E+00  0.00000000E+00  0.00000000E+00
  0.00000000E+00  0.00000000E+00  0.00000000E+00
  0.00000000E+00  0.00000000E+00  0.00000000E+00
  0.00000000E+00  0.00000000E+00  0.00000000E+00
  0.00000000E+00  0.00000000E+00  0.00000000E+00
  0.00000000E+00  0.00000000E+00  0.00000000E+00
  0.00000000E+00  0.00000000E+00  0.00000000E+00
  0.00000000E+00  0.00000000E+00  0.00000000E+00
  0.00000000E+00  0.00000000E+00  0.00000000E+00
  0.00000000E+00  0.00000000E+00  0.00000000E+00
  0.00000000E+00  0.00000000E+00  0.00000000E+00
  0.00000000E+00  0.00000000E+00  0.00000000E+00
  0.00000000E+00  0.00000000E+00  0.00000000E+00
  0.00000000E+00  0.00000000E+00  0.00000000E+00
  0.00000000E+00  0.00000000E+00  0.00000000E+00
  0.00000000E+00  0.00000000E+00  0.00000000E+00
  0.00000000E+00  0.00000000E+00  0.00000000E+00
  0.00000000E+00  0.00000000E+00  0.00000000E+00
  0.00000000E+00  0.00000000E+00  0.00000000E+00
  0.00000000E+00  0.00000000E+00  0.00000000E+00
