C H                                     
   1.00000000000000     
    40.0000000000000000    0.0000000000000000    0.0000000000000000
     0.0000000000000000   40.0000000000000000    0.0000000000000000
     0.0000000000000000    0.0000000000000000   40.0000000000000000
   C    H 
    10     8
Selective dynamics
Direct
  0.5606205888140060  0.4823558780888299  0.5000000000000000   T   T   T
  0.5606205888140060  0.5176431219111656  0.5000000000000000   T   T   T
  0.5309894251533436  0.5349809347051037  0.5000000000000000   T   T   T
  0.5000000000000000  0.5178882184255265  0.5000000000000000   T   T   T
  0.4690105748466566  0.5349809347051037  0.5000000000000000   T   T   T
  0.4393794111859940  0.5176441219111702  0.5000000000000000   T   T   T
  0.4393794111859940  0.4823568780888345  0.5000000000000000   T   T   T
  0.4690105748466566  0.4650190652948963  0.5000000000000000   T   T   T
  0.5000000000000000  0.4821117815744737  0.5000000000000000   T   T   T
  0.5309894251533436  0.4650190652948963  0.5000000000000000   T   T   T
  0.5309334076443994  0.4378787936842652  0.5000000000000000   T   T   T
  0.4690655923556032  0.4378797936842627  0.5000000000000000   T   T   T
  0.4158057133000319  0.4689901665102377  0.5000000000000000   T   T   T
  0.4158067133000365  0.5310108334897670  0.5000000000000000   T   T   T
  0.4690665923556007  0.5621212063157347  0.5000000000000000   T   T   T
  0.5309344076443969  0.5621202063157372  0.5000000000000000   T   T   T
  0.5841942866999682  0.5310098334897624  0.5000000000000000   T   T   T
  0.5841932866999636  0.4689891665102331  0.5000000000000000   T   T   T
 
  0.00000000E+00  0.00000000E+00  0.00000000E+00
  0.00000000E+00  0.00000000E+00  0.00000000E+00
  0.00000000E+00  0.00000000E+00  0.00000000E+00
  0.00000000E+00  0.00000000E+00  0.00000000E+00
  0.00000000E+00  0.00000000E+00  0.00000000E+00
  0.00000000E+00  0.00000000E+00  0.00000000E+00
  0.00000000E+00  0.00000000E+00  0.00000000E+00
  0.00000000E+00  0.00000000E+00  0.00000000E+00
  0.00000000E+00  0.00000000E+00  0.00000000E+00
  0.00000000E+00  0.00000000E+00  0.00000000E+00
  0.00000000E+00  0.00000000E+00  0.00000000E+00
  0.00000000E+00  0.00000000E+00  0.00000000E+00
  0.00000000E+00  0.00000000E+00  0.00000000E+00
  0.00000000E+00  0.00000000E+00  0.00000000E+00
  0.00000000E+00  0.00000000E+00  0.00000000E+00
  0.00000000E+00  0.00000000E+00  0.00000000E+00
  0.00000000E+00  0.00000000E+00  0.00000000E+00
  0.00000000E+00  0.00000000E+00  0.00000000E+00
