C O H                                   
   1.00000000000000     
    25.0000000000000000    0.0000000000000000    0.0000000000000000
     0.0000000000000000   25.0000000000000000    0.0000000000000000
     0.0000000000000000    0.0000000000000000   25.0000000000000000
   C    O    H 
    12     2    10
Selective dynamics
Direct
  0.4976171783914851  0.4805579916266621  0.4449988686313820   T   T   T
  0.4988043662639433  0.5398772713311920  0.4495644744769469   T   T   T
  0.5011686795685177  0.5643040863864660  0.4984595666612018   T   T   T
  0.5023365046218207  0.5322796000748690  0.5486524150110353   T   T   T
  0.5011153998358868  0.4729586814277607  0.5449824895736114   T   T   T
  0.4988570622742318  0.4478452510278409  0.4946070424855042   T   T   T
  0.4977587329214233  0.3919015595310943  0.4914310385080194   T   T   T
  0.4988697822514259  0.3611097149700911  0.5380285094243806   T   T   T
  0.5011169542923876  0.3860857951805968  0.5881270961671998   T   T   T
  0.5022169937902174  0.4418244790938714  0.5915921080055886   T   T   T
  0.5025151492542151  0.6239337635983134  0.5038963077011197   T   T   T
  0.4975061047445825  0.5713095280667005  0.3986035022419646   T   T   T
  0.5042692150724480  0.5548004481456728  0.5929379590667717   T   T   T
  0.4956521781428054  0.4586665789062134  0.4003909515463737   T   T   T
  0.5039747082104009  0.4616595488535139  0.6303828877203387   T   T   T
  0.5020156374941404  0.3620335765276709  0.6245421962268618   T   T   T
  0.4980403295506785  0.3175547661978369  0.5353363623223297   T   T   T
  0.4960495594859333  0.3728414997803089  0.4522529572233923   T   T   T
  0.4665462751392927  0.6420616260843783  0.4860789082428607   T   T   T
  0.5048463956119227  0.6357467847837476  0.5459995713578421   T   T   T
  0.5370453324547863  0.6408426927385160  0.4824382169343506   T   T   T
  0.5334879757435610  0.5964279531528436  0.3948641016790858   T   T   T
  0.4951955588154108  0.5447350782845303  0.3638754848523785   T   T   T
  0.4629929260684853  0.5986427242292989  0.3979559839394555   T   T   T
 
  0.00000000E+00  0.00000000E+00  0.00000000E+00
  0.00000000E+00  0.00000000E+00  0.00000000E+00
  0.00000000E+00  0.00000000E+00  0.00000000E+00
  0.00000000E+00  0.00000000E+00  0.00000000E+00
  0.00000000E+00  0.00000000E+00  0.00000000E+00
  0.00000000E+00  0.00000000E+00  0.00000000E+00
  0.00000000E+00  0.00000000E+00  0.00000000E+00
  0.00000000E+00  0.00000000E+00  0.00000000E+00
  0.00000000E+00  0.00000000E+00  0.00000000E+00
  0.00000000E+00  0.00000000E+00  0.00000000E+00
  0.00000000E+00  0.00000000E+00  0.00000000E+00
  0.00000000E+00  0.00000000E+00  0.00000000E+00
  0.00000000E+00  0.00000000E+00  0.00000000E+00
  0.00000000E+00  0.00000000E+00  0.00000000E+00
  0.00000000E+00  0.00000000E+00  0.00000000E+00
  0.00000000E+00  0.00000000E+00  0.00000000E+00
  0.00000000E+00  0.00000000E+00  0.00000000E+00
  0.00000000E+00  0.00000000E+00  0.00000000E+00
  0.00000000E+00  0.00000000E+00  0.00000000E+00
  0.00000000E+00  0.00000000E+00  0.00000000E+00
  0.00000000E+00  0.00000000E+00  0.00000000E+00
  0.00000000E+00  0.00000000E+00  0.00000000E+00
  0.00000000E+00  0.00000000E+00  0.00000000E+00
  0.00000000E+00  0.00000000E+00  0.00000000E+00
