C Cl O H                                
   1.00000000000000     
    40.0000000000000000    0.0000000000000000    0.0000000000000000
     0.0000000000000000   40.0000000000000000    0.0000000000000000
     0.0000000000000000    0.0000000000000000   40.0000000000000000
   C    Cl   O    H 
     8     1     1     7
Selective dynamics
Direct
  0.5095493418463126  0.5231861295555529  0.5000160889113934   T   T   T
  0.5442769647858616  0.5237430820983029  0.5000101806891092   T   T   T
  0.5615435665607672  0.4935621332579860  0.4999967833720539   T   T   T
  0.5448680093816277  0.4629651774098418  0.4999949238344996   T   T   T
  0.5102410378688925  0.4628584545893070  0.5000002533742232   T   T   T
  0.4921315802797005  0.4928397751024682  0.5000072582656615   T   T   T
  0.4549491659699644  0.4913794535625853  0.5000053731106736   T   T   T
  0.4354257419187110  0.5234708481767354  0.4999887644311689   T   T   T
  0.6048229860916940  0.4939302825443426  0.4999841336860538   T   T   T
  0.4405123896228599  0.4641926711236269  0.5000154662308232   T   T   T
  0.4415543851187289  0.5385208772170607  0.5219505505519202   T   T   T
  0.4415816385691687  0.5385127268566472  0.4780290135499585   T   T   T
  0.4088426126865032  0.5177367167965267  0.4999717601003509   T   T   T
  0.4967780530829343  0.4393585947946338  0.5000005843712302   T   T   T
  0.5588698570664143  0.4397950342600445  0.4999891743959402   T   T   T
  0.5578052425587252  0.5471807638132979  0.5000162277092390   T   T   T
  0.4962464265911438  0.5467692788410636  0.5000244634156916   T   T   T
 
  0.00000000E+00  0.00000000E+00  0.00000000E+00
  0.00000000E+00  0.00000000E+00  0.00000000E+00
  0.00000000E+00  0.00000000E+00  0.00000000E+00
  0.00000000E+00  0.00000000E+00  0.00000000E+00
  0.00000000E+00  0.00000000E+00  0.00000000E+00
  0.00000000E+00  0.00000000E+00  0.00000000E+00
  0.00000000E+00  0.00000000E+00  0.00000000E+00
  0.00000000E+00  0.00000000E+00  0.00000000E+00
  0.00000000E+00  0.00000000E+00  0.00000000E+00
  0.00000000E+00  0.00000000E+00  0.00000000E+00
  0.00000000E+00  0.00000000E+00  0.00000000E+00
  0.00000000E+00  0.00000000E+00  0.00000000E+00
  0.00000000E+00  0.00000000E+00  0.00000000E+00
  0.00000000E+00  0.00000000E+00  0.00000000E+00
  0.00000000E+00  0.00000000E+00  0.00000000E+00
  0.00000000E+00  0.00000000E+00  0.00000000E+00
  0.00000000E+00  0.00000000E+00  0.00000000E+00
