C N O H                                 
   1.00000000000000     
    40.0000000000000000    0.0000000000000000    0.0000000000000000
     0.0000000000000000   40.0000000000000000    0.0000000000000000
     0.0000000000000000    0.0000000000000000   40.0000000000000000
   C    N    O    H 
     9     1     2     7
Selective dynamics
Direct
  0.5169353326980612  0.4641248554517148  0.4999998620558017   T   T   T
  0.5512391175556601  0.4666403040575204  0.4999976617768809   T   T   T
  0.5674303163594203  0.4986742865067697  0.4999929553648812   T   T   T
  0.5464418830587405  0.5277778627456442  0.4999914908004541   T   T   T
  0.5121291285246627  0.5250298492698420  0.4999970523816515   T   T   T
  0.4958774630349367  0.4930941048822177  0.5000000595072223   T   T   T
  0.4601560182029800  0.4888917628308249  0.5000037506739972   T   T   T
  0.4073225867438808  0.5166516330460311  0.5000068173019869   T   T   T
  0.6023737585934938  0.5013948228865672  0.4999948684077538   T   T   T
  0.6318675569760615  0.5036226466907294  0.4999952883193259   T   T   T
  0.4444377991186812  0.4619280869403113  0.5000043256373488   T   T   T
  0.4429550296247982  0.5194686040169216  0.5000064378074214   T   T   T
  0.3982231748102549  0.5033024956669720  0.4777375626155660   T   T   T
  0.3978392482658961  0.5423794660805754  0.5000187776616514   T   T   T
  0.3982258899197504  0.5032835090298704  0.5222655345105096   T   T   T
  0.4968546115357029  0.5475898429780699  0.4999951821039659   T   T   T
  0.5581374303234554  0.5524334450593500  0.4999903088141835   T   T   T
  0.5666018879604664  0.4440877919510697  0.4999996785418830   T   T   T
  0.5049517666931109  0.4396256299089742  0.5000023857175648   T   T   T
 
  0.00000000E+00  0.00000000E+00  0.00000000E+00
  0.00000000E+00  0.00000000E+00  0.00000000E+00
  0.00000000E+00  0.00000000E+00  0.00000000E+00
  0.00000000E+00  0.00000000E+00  0.00000000E+00
  0.00000000E+00  0.00000000E+00  0.00000000E+00
  0.00000000E+00  0.00000000E+00  0.00000000E+00
  0.00000000E+00  0.00000000E+00  0.00000000E+00
  0.00000000E+00  0.00000000E+00  0.00000000E+00
  0.00000000E+00  0.00000000E+00  0.00000000E+00
  0.00000000E+00  0.00000000E+00  0.00000000E+00
  0.00000000E+00  0.00000000E+00  0.00000000E+00
  0.00000000E+00  0.00000000E+00  0.00000000E+00
  0.00000000E+00  0.00000000E+00  0.00000000E+00
  0.00000000E+00  0.00000000E+00  0.00000000E+00
  0.00000000E+00  0.00000000E+00  0.00000000E+00
  0.00000000E+00  0.00000000E+00  0.00000000E+00
  0.00000000E+00  0.00000000E+00  0.00000000E+00
  0.00000000E+00  0.00000000E+00  0.00000000E+00
  0.00000000E+00  0.00000000E+00  0.00000000E+00
