!TPSSh aug-cc-pVTZ d3 TightSCF SlowConv RIJCOSX defgrid2
 
%pal
nprocs 4
end
 
%scf
MaxIter 1500
end
 
%maxcore 3000
 
!CPCM
%cpcm smd true
SMDsolvent "MeCN"
surfacetype gepol_ses
rsolv 2.19
end 
 
* xyz 1 2
C          -0.22428548195010     -1.24213438922305     -0.03849982740281
C           1.14800811610277     -1.22870080724969      0.00227297677880
C           1.84566180598227     -0.00004019353139      0.02297012210753
C           1.14805042698559      1.22864411313713      0.00227054482980
C          -0.22424154749405      1.24212983950181     -0.03850931873892
C          -0.94084900168795      0.00001024661649     -0.05989305493678
N          -2.26985305582395      0.00003075135377     -0.09979281491323
H          -2.80165535396914      0.86997483968693     -0.11591197867223
H          -2.80167508667297     -0.86990117124685     -0.11590823438470
H          -0.77890173993705      2.18488554366972     -0.05504522287995
H           1.70373713208460      2.16980587419055      0.01885237386387
H           2.93889913121278     -0.00005967561260      0.05550059305168
H           1.70365895934134     -2.16988118368011      0.01885253182221
H          -0.77898600417414     -2.18486378761269     -0.05503389052528
*
