C N O H                                 
   1.00000000000000     
    25.0000000000000000    0.0000000000000000    0.0000000000000000
     0.0000000000000000   25.0000000000000000    0.0000000000000000
     0.0000000000000000    0.0000000000000000   25.0000000000000000
   C    N    O    H 
    10     1     3    18
Selective dynamics
Direct
  0.5053523878300826  0.5448805280117167  0.4587557450686461   T   T   T
  0.5304825631535809  0.4903689061682190  0.4444170439515048   T   T   T
  0.5409096464397131  0.4544580224995402  0.4925421627930066   T   T   T
  0.4882692062414842  0.4435964234549063  0.5220337872770240   T   T   T
  0.4602795208430805  0.4947639343253262  0.5424371997659039   T   T   T
  0.5455908549571865  0.5824364000462482  0.4874678687365330   T   T   T
  0.4831661501967728  0.5726995263722057  0.4091790993965199   T   T   T
  0.4908424569853923  0.5208081760087808  0.5897619658742295   T   T   T
  0.4026803209431427  0.4832391710283956  0.5589341166802301   T   T   T
  0.5673973446617134  0.4023167808716139  0.4752578388228042   T   T   T
  0.4591926135685329  0.5358695243294608  0.4975040013373100   T   T   T
  0.4195583344634291  0.5630680797729134  0.4924560631555912   T   T   T
  0.5803389569065240  0.3914097219198872  0.4293267299533287   T   T   T
  0.5753338228176175  0.3694902779699412  0.5173124188840588   T   T   T
  0.5677052012811735  0.4992107043245484  0.4228566012140428   T   T   T
  0.5039650986573423  0.4696026704669032  0.4161166866877094   T   T   T
  0.5696629297685133  0.4732279908919206  0.5202195546532019   T   T   T
  0.4946227179892425  0.4182597609405697  0.5573096854928632   T   T   T
  0.4605815740273442  0.4221446744267880  0.4953646899853560   T   T   T
  0.5255361284456170  0.6182402098052835  0.5029560732106041   T   T   T
  0.5677285164408347  0.5628558702099682  0.5196872237847679   T   T   T
  0.5742991132225543  0.5948071118826812  0.4566314666110542   T   T   T
  0.4694833695405827  0.6134330802173861  0.4178214691971004   T   T   T
  0.4501253496030767  0.5498762252139678  0.3914299424181369   T   T   T
  0.5157969651059074  0.5750492305388907  0.3799318794249567   T   T   T
  0.4744528263643157  0.5603486853791436  0.5993414987498393   T   T   T
  0.5339173441830517  0.5240162371830936  0.5829608755081804   T   T   T
  0.4842784438856670  0.4943117681737088  0.6241504191773409   T   T   T
  0.3836602876281834  0.5179244439893190  0.5778215677329219   T   T   T
  0.3784319811657113  0.4704566057060805  0.5246344086957626   T   T   T
  0.4038232835580071  0.4505479079249338  0.5881827844646205   T   T   T
  0.5925356891246487  0.3362823499456690  0.5051981312948337   T   T   T
 
  0.00000000E+00  0.00000000E+00  0.00000000E+00
  0.00000000E+00  0.00000000E+00  0.00000000E+00
  0.00000000E+00  0.00000000E+00  0.00000000E+00
  0.00000000E+00  0.00000000E+00  0.00000000E+00
  0.00000000E+00  0.00000000E+00  0.00000000E+00
  0.00000000E+00  0.00000000E+00  0.00000000E+00
  0.00000000E+00  0.00000000E+00  0.00000000E+00
  0.00000000E+00  0.00000000E+00  0.00000000E+00
  0.00000000E+00  0.00000000E+00  0.00000000E+00
  0.00000000E+00  0.00000000E+00  0.00000000E+00
  0.00000000E+00  0.00000000E+00  0.00000000E+00
  0.00000000E+00  0.00000000E+00  0.00000000E+00
  0.00000000E+00  0.00000000E+00  0.00000000E+00
  0.00000000E+00  0.00000000E+00  0.00000000E+00
  0.00000000E+00  0.00000000E+00  0.00000000E+00
  0.00000000E+00  0.00000000E+00  0.00000000E+00
  0.00000000E+00  0.00000000E+00  0.00000000E+00
  0.00000000E+00  0.00000000E+00  0.00000000E+00
  0.00000000E+00  0.00000000E+00  0.00000000E+00
  0.00000000E+00  0.00000000E+00  0.00000000E+00
  0.00000000E+00  0.00000000E+00  0.00000000E+00
  0.00000000E+00  0.00000000E+00  0.00000000E+00
  0.00000000E+00  0.00000000E+00  0.00000000E+00
  0.00000000E+00  0.00000000E+00  0.00000000E+00
  0.00000000E+00  0.00000000E+00  0.00000000E+00
  0.00000000E+00  0.00000000E+00  0.00000000E+00
  0.00000000E+00  0.00000000E+00  0.00000000E+00
  0.00000000E+00  0.00000000E+00  0.00000000E+00
  0.00000000E+00  0.00000000E+00  0.00000000E+00
  0.00000000E+00  0.00000000E+00  0.00000000E+00
  0.00000000E+00  0.00000000E+00  0.00000000E+00
  0.00000000E+00  0.00000000E+00  0.00000000E+00
