C N O H                                 
   1.00000000000000     
    40.0000000000000000    0.0000000000000000    0.0000000000000000
     0.0000000000000000   40.0000000000000000    0.0000000000000000
     0.0000000000000000    0.0000000000000000   40.0000000000000000
   C    N    O    H 
    10     1     1    17
Selective dynamics
Direct
  0.4702446999858126  0.4681825283256712  0.5041421134200308   T   T   T
  0.4915007693715446  0.4992356255850656  0.5089668634629259   T   T   T
  0.4784675231451456  0.5301125360331115  0.5038445771836935   T   T   T
  0.4425411483013402  0.5366987059567203  0.4946286946128546   T   T   T
  0.4243179742405379  0.5052997709785572  0.4825494023802047   T   T   T
  0.4327356789240467  0.4757663936186456  0.5052562049154935   T   T   T
  0.5463388058701283  0.5211690933798767  0.5280407866490040   T   T   T
  0.5659402639618790  0.5315923968529460  0.4969332294982168   T   T   T
  0.5630019458443284  0.4762439645284983  0.4763936323448361   T   T   T
  0.5433190431551093  0.4652153848599960  0.5072553202206378   T   T   T
  0.5239694230640737  0.4931231182719328  0.5211752607024355   T   T   T
  0.5846862886139765  0.5038184531653832  0.4839171610731804   T   T   T
  0.4254211189410684  0.4818018067638149  0.5311517691776990   T   T   T
  0.4185515707235739  0.4533369481182045  0.4980045705621539   T   T   T
  0.4322718868279189  0.4993558815863329  0.4568200616995908   T   T   T
  0.3971674241819166  0.5096476108117568  0.4817140255377725   T   T   T
  0.4290042528490345  0.5473120111735441  0.5163291857511725   T   T   T
  0.4414504087262634  0.5562657157162615  0.4752339902971009   T   T   T
  0.4940905678774528  0.5522281078580676  0.5070528212175379   T   T   T
  0.5321359808994240  0.5422386751468358  0.5384129312064339   T   T   T
  0.5843160209961216  0.5511129268524253  0.5028997894375474   T   T   T
  0.5487535513552320  0.5411657910521546  0.4774931682012731   T   T   T
  0.5454462401129376  0.4833617305256175  0.4561666483944997   T   T   T
  0.5609888288732841  0.4564961953855953  0.5265500727358516   T   T   T
  0.5268946336199019  0.4442118032592376  0.5009152553492729   T   T   T
  0.5792034485258948  0.4560131895573010  0.4672860881839453   T   T   T
  0.5643054449071672  0.5129453075480706  0.5472954731147670   T   T   T
  0.4762802552837336  0.4562629284775597  0.4799693018930896   T   T   T
  0.4766568008211473  0.4497863986108138  0.5236046007767923   T   T   T
 
  0.00000000E+00  0.00000000E+00  0.00000000E+00
  0.00000000E+00  0.00000000E+00  0.00000000E+00
  0.00000000E+00  0.00000000E+00  0.00000000E+00
  0.00000000E+00  0.00000000E+00  0.00000000E+00
  0.00000000E+00  0.00000000E+00  0.00000000E+00
  0.00000000E+00  0.00000000E+00  0.00000000E+00
  0.00000000E+00  0.00000000E+00  0.00000000E+00
  0.00000000E+00  0.00000000E+00  0.00000000E+00
  0.00000000E+00  0.00000000E+00  0.00000000E+00
  0.00000000E+00  0.00000000E+00  0.00000000E+00
  0.00000000E+00  0.00000000E+00  0.00000000E+00
  0.00000000E+00  0.00000000E+00  0.00000000E+00
  0.00000000E+00  0.00000000E+00  0.00000000E+00
  0.00000000E+00  0.00000000E+00  0.00000000E+00
  0.00000000E+00  0.00000000E+00  0.00000000E+00
  0.00000000E+00  0.00000000E+00  0.00000000E+00
  0.00000000E+00  0.00000000E+00  0.00000000E+00
  0.00000000E+00  0.00000000E+00  0.00000000E+00
  0.00000000E+00  0.00000000E+00  0.00000000E+00
  0.00000000E+00  0.00000000E+00  0.00000000E+00
  0.00000000E+00  0.00000000E+00  0.00000000E+00
  0.00000000E+00  0.00000000E+00  0.00000000E+00
  0.00000000E+00  0.00000000E+00  0.00000000E+00
  0.00000000E+00  0.00000000E+00  0.00000000E+00
  0.00000000E+00  0.00000000E+00  0.00000000E+00
  0.00000000E+00  0.00000000E+00  0.00000000E+00
  0.00000000E+00  0.00000000E+00  0.00000000E+00
  0.00000000E+00  0.00000000E+00  0.00000000E+00
  0.00000000E+00  0.00000000E+00  0.00000000E+00
