C O H                                   
   1.00000000000000     
    40.0000000000000000    0.0000000000000000    0.0000000000000000
     0.0000000000000000   40.0000000000000000    0.0000000000000000
     0.0000000000000000    0.0000000000000000   40.0000000000000000
   C    O    H 
    10     1    12
Selective dynamics
Direct
  0.4870358993832575  0.5227592510589292  0.4999870256755176   T   T   T
  0.4545541504741645  0.5106597566751093  0.4999883962534383   T   T   T
  0.4485788242500639  0.4754789784950206  0.5000058496366793   T   T   T
  0.4752311528333113  0.4533712227895837  0.5000192015681002   T   T   T
  0.5075855667800419  0.4652749365927297  0.5000115067598023   T   T   T
  0.5139448391710587  0.5006748149165321  0.4999978359342715   T   T   T
  0.5471555527680472  0.5136482336225577  0.4999902774749308   T   T   T
  0.5757062412995381  0.4950467566716888  0.4999986783505624   T   T   T
  0.6095089953530498  0.5095315759418172  0.5000059375614915   T   T   T
  0.3958558608370795  0.5225275048246664  0.4999882735268173   T   T   T
  0.4301306868817273  0.5329976259006725  0.4999820969555435   T   T   T
  0.6234396529323413  0.5004771283326043  0.4782077033002627   T   T   T
  0.6234261278924625  0.5004686310919844  0.5218214220850224   T   T   T
  0.6092128813697474  0.5367602928712072  0.5000061393296883   T   T   T
  0.5742228592540004  0.4679680325626610  0.4999979931709768   T   T   T
  0.5494647130252106  0.5406984223579321  0.4999764861855369   T   T   T
  0.5281407440488088  0.4477537968254096  0.5000191899747334   T   T   T
  0.4704762944272238  0.4267407267174083  0.5000365036582723   T   T   T
  0.4232518624258500  0.4660259188835336  0.5000126677620396   T   T   T
  0.3813869261958781  0.5455102928317419  0.4999843057758919   T   T   T
  0.3902534948347154  0.5080640673501593  0.5224117022176143   T   T   T
  0.3902516362214445  0.5080548519210843  0.4775722235038584   T   T   T
  0.4911850373410121  0.5495071807649108  0.4999785833388993   T   T   T
 
  0.00000000E+00  0.00000000E+00  0.00000000E+00
  0.00000000E+00  0.00000000E+00  0.00000000E+00
  0.00000000E+00  0.00000000E+00  0.00000000E+00
  0.00000000E+00  0.00000000E+00  0.00000000E+00
  0.00000000E+00  0.00000000E+00  0.00000000E+00
  0.00000000E+00  0.00000000E+00  0.00000000E+00
  0.00000000E+00  0.00000000E+00  0.00000000E+00
  0.00000000E+00  0.00000000E+00  0.00000000E+00
  0.00000000E+00  0.00000000E+00  0.00000000E+00
  0.00000000E+00  0.00000000E+00  0.00000000E+00
  0.00000000E+00  0.00000000E+00  0.00000000E+00
  0.00000000E+00  0.00000000E+00  0.00000000E+00
  0.00000000E+00  0.00000000E+00  0.00000000E+00
  0.00000000E+00  0.00000000E+00  0.00000000E+00
  0.00000000E+00  0.00000000E+00  0.00000000E+00
  0.00000000E+00  0.00000000E+00  0.00000000E+00
  0.00000000E+00  0.00000000E+00  0.00000000E+00
  0.00000000E+00  0.00000000E+00  0.00000000E+00
  0.00000000E+00  0.00000000E+00  0.00000000E+00
  0.00000000E+00  0.00000000E+00  0.00000000E+00
  0.00000000E+00  0.00000000E+00  0.00000000E+00
  0.00000000E+00  0.00000000E+00  0.00000000E+00
  0.00000000E+00  0.00000000E+00  0.00000000E+00
