C H                                     
   1.00000000000000     
    40.0000000000000000    0.0000000000000000    0.0000000000000000
     0.0000000000000000   40.0000000000000000    0.0000000000000000
     0.0000000000000000    0.0000000000000000   40.0000000000000000
   C    H 
    12    14
Selective dynamics
Direct
  0.5119265800056212  0.4671277720844813  0.4999954376912612   T   T   T
  0.5350823518850945  0.4943279933248519  0.4999978938415737   T   T   T
  0.5220074890627302  0.5275598843822280  0.4999951463072279   T   T   T
  0.4880731147044415  0.5328710804397403  0.4999875126313924   T   T   T
  0.4649171982592222  0.5056716342024714  0.4999933881790994   T   T   T
  0.4779926846265283  0.4724401669557139  0.4999948994354995   T   T   T
  0.4299334612205570  0.5133028697067630  0.4999875059641496   T   T   T
  0.4041864258758849  0.4906609486712199  0.5000078070054172   T   T   T
  0.3685293351238528  0.5002333163348780  0.5000085318986578   T   T   T
  0.5700662107113601  0.4866966598863982  0.5000011304652574   T   T   T
  0.5958131885971412  0.5093398592079836  0.5000035194510204   T   T   T
  0.6314707635618930  0.4997674634998077  0.5000067607485335   T   T   T
  0.4611635324507048  0.4510401998676556  0.4999911622561513   T   T   T
  0.3557873954294308  0.4891655311212944  0.4781787810346003   T   T   T
  0.3648003217984837  0.5273974637362144  0.4999862032147178   T   T   T
  0.3558035301098172  0.4892050909640417  0.5218693843214552   T   T   T
  0.4096817368302297  0.4638861996785479  0.5000245875037095   T   T   T
  0.4234710994868465  0.5398811533292545  0.4999684104745796   T   T   T
  0.4782336978685890  0.5582980634933534  0.4999821019418036   T   T   T
  0.5388362644417484  0.5489594398298081  0.4999923782485922   T   T   T
  0.6442030475270997  0.5108189661281060  0.5218517684769424   T   T   T
  0.6442063982414012  0.5108113163085903  0.4781614392742455   T   T   T
  0.6352001571145536  0.4726038712969753  0.5000119177690792   T   T   T
  0.5903178598881453  0.5361148043262389  0.4999990917676058   T   T   T
  0.5765289756590377  0.4601186307007339  0.5000041956095274   T   T   T
  0.5217671795195784  0.4417006205226670  0.4999980444878318   T   T   T
 
  0.00000000E+00  0.00000000E+00  0.00000000E+00
  0.00000000E+00  0.00000000E+00  0.00000000E+00
  0.00000000E+00  0.00000000E+00  0.00000000E+00
  0.00000000E+00  0.00000000E+00  0.00000000E+00
  0.00000000E+00  0.00000000E+00  0.00000000E+00
  0.00000000E+00  0.00000000E+00  0.00000000E+00
  0.00000000E+00  0.00000000E+00  0.00000000E+00
  0.00000000E+00  0.00000000E+00  0.00000000E+00
  0.00000000E+00  0.00000000E+00  0.00000000E+00
  0.00000000E+00  0.00000000E+00  0.00000000E+00
  0.00000000E+00  0.00000000E+00  0.00000000E+00
  0.00000000E+00  0.00000000E+00  0.00000000E+00
  0.00000000E+00  0.00000000E+00  0.00000000E+00
  0.00000000E+00  0.00000000E+00  0.00000000E+00
  0.00000000E+00  0.00000000E+00  0.00000000E+00
  0.00000000E+00  0.00000000E+00  0.00000000E+00
  0.00000000E+00  0.00000000E+00  0.00000000E+00
  0.00000000E+00  0.00000000E+00  0.00000000E+00
  0.00000000E+00  0.00000000E+00  0.00000000E+00
  0.00000000E+00  0.00000000E+00  0.00000000E+00
  0.00000000E+00  0.00000000E+00  0.00000000E+00
  0.00000000E+00  0.00000000E+00  0.00000000E+00
  0.00000000E+00  0.00000000E+00  0.00000000E+00
  0.00000000E+00  0.00000000E+00  0.00000000E+00
  0.00000000E+00  0.00000000E+00  0.00000000E+00
  0.00000000E+00  0.00000000E+00  0.00000000E+00
