C H                                     
   1.00000000000000     
    40.0000000000000000    0.0000000000000000    0.0000000000000000
     0.0000000000000000   40.0000000000000000    0.0000000000000000
     0.0000000000000000    0.0000000000000000   40.0000000000000000
   C    H 
     8    10
Selective dynamics
Direct
  0.4455270264341952  0.4820802775313824  0.5000009157873393   T   T   T
  0.4751438092863642  0.4645851319088686  0.5000005364039026   T   T   T
  0.5056465670009028  0.4816528601465404  0.4999997873856614   T   T   T
  0.5375871697903007  0.4632279231683666  0.4999981708036145   T   T   T
  0.5056466204030282  0.5183469037803820  0.5000004051416340   T   T   T
  0.5375869876142843  0.5367719657740737  0.5000001930902300   T   T   T
  0.4751439933145596  0.5354150053640799  0.5000012806698635   T   T   T
  0.4455267346498989  0.5179197138738570  0.5000013754990960   T   T   T
  0.5527243747019367  0.4700546839432501  0.5217778626106577   T   T   T
  0.5336559149706829  0.4363533333806996  0.5000003043109942   T   T   T
  0.5527206773098056  0.4700517788238268  0.4782149911009600   T   T   T
  0.5527234839817706  0.5299450458526312  0.4782201066009623   T   T   T
  0.5336558986953107  0.5636465424228323  0.4999983395436018   T   T   T
  0.5527214075884058  0.5299481392326332  0.5217828001130185   T   T   T
  0.4218723181021435  0.5310473364787286  0.5000013071251743   T   T   T
  0.4751233259467947  0.5624754259419271  0.5000012208110576   T   T   T
  0.4751234064215718  0.4375245043942534  0.5000001430382781   T   T   T
  0.4218722837880027  0.4689524279816409  0.5000012599639376   T   T   T
 
  0.00000000E+00  0.00000000E+00  0.00000000E+00
  0.00000000E+00  0.00000000E+00  0.00000000E+00
  0.00000000E+00  0.00000000E+00  0.00000000E+00
  0.00000000E+00  0.00000000E+00  0.00000000E+00
  0.00000000E+00  0.00000000E+00  0.00000000E+00
  0.00000000E+00  0.00000000E+00  0.00000000E+00
  0.00000000E+00  0.00000000E+00  0.00000000E+00
  0.00000000E+00  0.00000000E+00  0.00000000E+00
  0.00000000E+00  0.00000000E+00  0.00000000E+00
  0.00000000E+00  0.00000000E+00  0.00000000E+00
  0.00000000E+00  0.00000000E+00  0.00000000E+00
  0.00000000E+00  0.00000000E+00  0.00000000E+00
  0.00000000E+00  0.00000000E+00  0.00000000E+00
  0.00000000E+00  0.00000000E+00  0.00000000E+00
  0.00000000E+00  0.00000000E+00  0.00000000E+00
  0.00000000E+00  0.00000000E+00  0.00000000E+00
  0.00000000E+00  0.00000000E+00  0.00000000E+00
  0.00000000E+00  0.00000000E+00  0.00000000E+00
