C H                                     
   1.00000000000000     
    40.0000000000000000    0.0000000000000000    0.0000000000000000
     0.0000000000000000   40.0000000000000000    0.0000000000000000
     0.0000000000000000    0.0000000000000000   40.0000000000000000
   C    H 
    10    12
Selective dynamics
Direct
  0.5268599193201240  0.4685924085897355  0.5000027131464719   T   T   T
  0.5361129694810032  0.5025200731911141  0.5000018316847488   T   T   T
  0.5103045102803776  0.5264024514654793  0.5000018515062905   T   T   T
  0.4764475336440768  0.5176599782732012  0.5000006794595393   T   T   T
  0.4676068805059330  0.4834709110732334  0.5000014818628458   T   T   T
  0.4932725964321421  0.4595267577013118  0.5000036155167962   T   T   T
  0.4315282217810079  0.4728699034321977  0.5000003296810931   T   T   T
  0.4499202462378946  0.5443579422422573  0.4999988892596505   T   T   T
  0.5709433077533603  0.5140379264172239  0.5000028487167896   T   T   T
  0.5986959758922481  0.4951170780004617  0.4999914383923567   T   T   T
  0.4865688118558040  0.4330488666456205  0.5000053821113113   T   T   T
  0.4291582762318455  0.4455375617692852  0.5000022391887669   T   T   T
  0.4181502699678816  0.4825540814650182  0.4779646643292210   T   T   T
  0.4181475672640502  0.4825575867919554  0.5220327396912623   T   T   T
  0.4335442478693707  0.5423147535478137  0.5220370460057495   T   T   T
  0.4335422074223771  0.5423096830720198  0.4779627306887519   T   T   T
  0.4610080451304341  0.5694498722869312  0.4999956672297969   T   T   T
  0.5170033894708084  0.5529145244461517  0.5000015094942896   T   T   T
  0.5978770206438213  0.4678536530685022  0.4999781583481138   T   T   T
  0.6234238642661296  0.5065361520326093  0.4999922936634462   T   T   T
  0.5739416682943244  0.5412618643717622  0.5000143050934227   T   T   T
  0.5459414702549878  0.4491069701161337  0.5000075849292998   T   T   T
 
  0.00000000E+00  0.00000000E+00  0.00000000E+00
  0.00000000E+00  0.00000000E+00  0.00000000E+00
  0.00000000E+00  0.00000000E+00  0.00000000E+00
  0.00000000E+00  0.00000000E+00  0.00000000E+00
  0.00000000E+00  0.00000000E+00  0.00000000E+00
  0.00000000E+00  0.00000000E+00  0.00000000E+00
  0.00000000E+00  0.00000000E+00  0.00000000E+00
  0.00000000E+00  0.00000000E+00  0.00000000E+00
  0.00000000E+00  0.00000000E+00  0.00000000E+00
  0.00000000E+00  0.00000000E+00  0.00000000E+00
  0.00000000E+00  0.00000000E+00  0.00000000E+00
  0.00000000E+00  0.00000000E+00  0.00000000E+00
  0.00000000E+00  0.00000000E+00  0.00000000E+00
  0.00000000E+00  0.00000000E+00  0.00000000E+00
  0.00000000E+00  0.00000000E+00  0.00000000E+00
  0.00000000E+00  0.00000000E+00  0.00000000E+00
  0.00000000E+00  0.00000000E+00  0.00000000E+00
  0.00000000E+00  0.00000000E+00  0.00000000E+00
  0.00000000E+00  0.00000000E+00  0.00000000E+00
  0.00000000E+00  0.00000000E+00  0.00000000E+00
  0.00000000E+00  0.00000000E+00  0.00000000E+00
  0.00000000E+00  0.00000000E+00  0.00000000E+00
