!r2SCAN freq aug-cc-pVTZ d3 TightSCF SlowConv RIJCOSX defgrid2

%pal
nprocs 12
end

%scf
MaxIter 1500
end

%maxcore 5000

!CPCM
%cpcm smd true
SMDsolvent "MeCN"
surfacetype gepol_ses
rsolv 2.19
end 

* xyz 1 2
C          -0.70961589920319     -1.06464191676674     -0.00250127633074
C          -1.29126136870814      0.22984836906446     -0.00038631824999
C          -0.48166301074634      1.40147979518884     -0.00119291507185
C           0.87343420948874      1.28346653192672     -0.00139231070149
C           1.47185538890512     -0.00917114809331     -0.00130014077984
C           0.64907912504216     -1.17477626818003     -0.00272405501776
H           1.12009524239652     -2.14826755957659     -0.00346780952303
C           2.85517285854173     -0.14047245684187      0.00080612035728
C           4.06432301284664     -0.25770506964200      0.00279341508800
H           5.12747920720439     -0.35747702711399      0.00410676821935
H           1.50706264945291      2.15946316717968     -0.00178831949465
H          -0.97130872643858      2.36631946906837     -0.00078355323863
O          -2.58229742772840      0.44953078071245      0.00260698216981
C          -3.51196004488051     -0.66411065047995      0.00201414046661
H          -4.49431429796707     -0.20521632452530      0.00098402796491
H          -3.36424516489346     -1.26128332121901     -0.89600487415869
H          -3.36614425469046     -1.26113841847923      0.90059004361545
H          -1.32994689862203     -1.94836585222250     -0.00215792531473
*
