C O H                                   
   1.00000000000000     
    40.0000000000000000    0.0000000000000000    0.0000000000000000
     0.0000000000000000   40.0000000000000000    0.0000000000000000
     0.0000000000000000    0.0000000000000000   40.0000000000000000
   C    O    H 
     9     1     8
Selective dynamics
Direct
  0.4884104415066939  0.4768905588380847  0.4999884037034931   T   T   T
  0.4737746959407347  0.5093668461956248  0.4999959070008096   T   T   T
  0.4941162084607367  0.5387646923757117  0.4999967508569232   T   T   T
  0.5282136773798420  0.5357434821120258  0.4999936213214826   T   T   T
  0.5432542712974809  0.5033127754074874  0.4999917719403768   T   T   T
  0.5225812637219194  0.4740910647886419  0.4999881539856311   T   T   T
  0.5780073122667891  0.5000583319968501  0.5000012885518205   T   T   T
  0.6084589105733131  0.4972868415269706  0.5000153197251892   T   T   T
  0.4177324335748587  0.4870659507515039  0.5000072365721691   T   T   T
  0.4412054342271902  0.5148978868213162  0.5000020741177363   T   T   T
  0.5343754880066597  0.4495858828051982  0.4999845173491387   T   T   T
  0.6352064310674932  0.4948180490195751  0.5000279813625773   T   T   T
  0.5441460862694394  0.5577766122600508  0.4999933729392605   T   T   T
  0.4818578272989176  0.5630531027351493  0.4999998651608307   T   T   T
  0.3930805560754010  0.4987092513522181  0.5000144856208031   T   T   T
  0.4213524340818648  0.4719810131672046  0.4774318119855920   T   T   T
  0.4213655148238145  0.4719788567237132  0.5225796308388500   T   T   T
  0.4728600134268604  0.4546188011226523  0.4999878069673020   T   T   T
 
  0.00000000E+00  0.00000000E+00  0.00000000E+00
  0.00000000E+00  0.00000000E+00  0.00000000E+00
  0.00000000E+00  0.00000000E+00  0.00000000E+00
  0.00000000E+00  0.00000000E+00  0.00000000E+00
  0.00000000E+00  0.00000000E+00  0.00000000E+00
  0.00000000E+00  0.00000000E+00  0.00000000E+00
  0.00000000E+00  0.00000000E+00  0.00000000E+00
  0.00000000E+00  0.00000000E+00  0.00000000E+00
  0.00000000E+00  0.00000000E+00  0.00000000E+00
  0.00000000E+00  0.00000000E+00  0.00000000E+00
  0.00000000E+00  0.00000000E+00  0.00000000E+00
  0.00000000E+00  0.00000000E+00  0.00000000E+00
  0.00000000E+00  0.00000000E+00  0.00000000E+00
  0.00000000E+00  0.00000000E+00  0.00000000E+00
  0.00000000E+00  0.00000000E+00  0.00000000E+00
  0.00000000E+00  0.00000000E+00  0.00000000E+00
  0.00000000E+00  0.00000000E+00  0.00000000E+00
  0.00000000E+00  0.00000000E+00  0.00000000E+00
