C N O H                                 
   1.00000000000000     
    40.0000000000000000    0.0000000000000000    0.0000000000000000
     0.0000000000000000   40.0000000000000000    0.0000000000000000
     0.0000000000000000    0.0000000000000000   40.0000000000000000
   C    N    O    H 
     8     1     3     7
Selective dynamics
Direct
  0.5012894613181408  0.4636362039944510  0.4999844944373742   T   T   T
  0.4667672094033015  0.4635755482685879  0.5000063652097665   T   T   T
  0.4502614702882521  0.4940990077566994  0.5000378830225796   T   T   T
  0.4671205860285422  0.5243522885745259  0.5000512199254038   T   T   T
  0.5017463560637000  0.5239512622506645  0.5000238874235482   T   T   T
  0.5190449822209572  0.4936728443474610  0.4999880917575407   T   T   T
  0.5564546876256260  0.4921742545181528  0.4999575518669569   T   T   T
  0.5759950736214006  0.5240784235460394  0.4999385925704176   T   T   T
  0.4137698331304802  0.4943023980142540  0.5000588581515190   T   T   T
  0.5704486156968026  0.4650298508705056  0.4999483809545572   T   T   T
  0.3994703726114117  0.5213673949761278  0.5000777144744304   T   T   T
  0.3992141314368115  0.4673784214732957  0.5000526727990259   T   T   T
  0.5699154057816026  0.5390674031581397  0.5219545614364590   T   T   T
  0.6025719711293847  0.5183094071443709  0.4998783197731090   T   T   T
  0.5698171220888577  0.5391175543820339  0.4779855056694307   T   T   T
  0.5150419423757828  0.5474995650109807  0.5000243198787232   T   T   T
  0.4533778613940282  0.5476104306744773  0.5000707863364471   T   T   T
  0.4527423833520432  0.4404864464620304  0.5000012836662739   T   T   T
  0.5149495344328693  0.4402952945772127  0.4999585106464325   T   T   T
 
  0.00000000E+00  0.00000000E+00  0.00000000E+00
  0.00000000E+00  0.00000000E+00  0.00000000E+00
  0.00000000E+00  0.00000000E+00  0.00000000E+00
  0.00000000E+00  0.00000000E+00  0.00000000E+00
  0.00000000E+00  0.00000000E+00  0.00000000E+00
  0.00000000E+00  0.00000000E+00  0.00000000E+00
  0.00000000E+00  0.00000000E+00  0.00000000E+00
  0.00000000E+00  0.00000000E+00  0.00000000E+00
  0.00000000E+00  0.00000000E+00  0.00000000E+00
  0.00000000E+00  0.00000000E+00  0.00000000E+00
  0.00000000E+00  0.00000000E+00  0.00000000E+00
  0.00000000E+00  0.00000000E+00  0.00000000E+00
  0.00000000E+00  0.00000000E+00  0.00000000E+00
  0.00000000E+00  0.00000000E+00  0.00000000E+00
  0.00000000E+00  0.00000000E+00  0.00000000E+00
  0.00000000E+00  0.00000000E+00  0.00000000E+00
  0.00000000E+00  0.00000000E+00  0.00000000E+00
  0.00000000E+00  0.00000000E+00  0.00000000E+00
  0.00000000E+00  0.00000000E+00  0.00000000E+00
