!B3LYP aug-cc-pVTZ d3 TightSCF SlowConv RIJCOSX defgrid2
 
%pal
nprocs 4
end
 
%scf
MaxIter 1500
end
 
%maxcore 3000
 
!CPCM
%cpcm smd true
SMDsolvent "MeCN"
surfacetype gepol_ses
rsolv 2.19
end 
 
* xyz 0 1
C          -0.45962349392076      1.19930168964946      0.00062202556794
C           0.93187577371451      1.21292315738455      0.00021003045593
C           1.62461355579551      0.00264447710890     -0.00023259743760
C           0.94147031950354     -1.21572927971146     -0.00024754015947
C          -0.44629067380136     -1.21277951487668      0.00019404075702
C          -1.16457141606032     -0.01003943569872      0.00066278241731
C          -2.65943474979432     -0.08619562751851      0.00125896770752
O          -3.21849789447990     -1.16065283026292     -0.00068065256956
C          -3.44514706371262      1.20360842703596     -0.00042582391608
H          -3.20900994320141      1.81348807306859      0.88908099447108
H          -3.20722570566812      1.81245947226407     -0.89017014718689
H          -4.51791848417965      0.96213295731483     -0.00129821423503
H          -1.01178782473404     -2.14828242074604      0.00023169281017
H           1.50422972929259     -2.15194601130068     -0.00059587432262
Cl          3.35241439280556      0.01090662049481     -0.00078466924471
H           1.48532961925900      2.15441464352816      0.00021462148241
H          -0.99337054081820      2.15308200226567      0.00096246340259
*
