C N H                                   
   1.00000000000000     
    40.0000000000000000    0.0000000000000000    0.0000000000000000
     0.0000000000000000   40.0000000000000000    0.0000000000000000
     0.0000000000000000    0.0000000000000000   40.0000000000000000
   C    N    H 
     6     1    15
Selective dynamics
Direct
  0.4699493987918092  0.4990864792253894  0.5219471467504616   T   T   T
  0.4427056876458950  0.4999887865517169  0.4950527979940925   T   T   T
  0.5155230193879664  0.4770178687230481  0.4874743523059257   T   T   T
  0.5144675083973260  0.4421466658035134  0.5025665363031817   T   T   T
  0.5108897130144180  0.5364713269249738  0.4969325786058921   T   T   T
  0.5475250690946705  0.5465737414998396  0.4992956420035306   T   T   T
  0.5045013261047385  0.5031304974186386  0.5105182408372350   T   T   T
  0.4181262951448428  0.4976732577702240  0.5067307888383610   T   T   T
  0.4453126296744594  0.4794770979429058  0.4772105852083452   T   T   T
  0.4431155718652952  0.5234525528811851  0.4810920100484599   T   T   T
  0.4683064742651344  0.4755642719509460  0.5357551976355743   T   T   T
  0.4653168970920942  0.5189756443501046  0.5401673069956849   T   T   T
  0.4889406110321016  0.4333769570567700  0.5066266385320555   T   T   T
  0.5266400248465662  0.4243851231762415  0.4857900178309079   T   T   T
  0.5275535300121205  0.4417596024211244  0.5265404480946446   T   T   T
  0.5009945595982093  0.4774264756638049  0.4639219660483539   T   T   T
  0.5413107722324495  0.4827594345948993  0.4805231783967018   T   T   T
  0.5636214190074383  0.5306615849847882  0.4840631573540214   T   T   T
  0.5560883480130143  0.5449974857389754  0.5251720535132040   T   T   T
  0.5507896581137010  0.5722399634616584  0.4905438541041149   T   T   T
  0.5024340211477321  0.5386240375737447  0.4706847199867411   T   T   T
  0.4958884655180014  0.5542121442855058  0.5113907826124960   T   T   T
 
  0.00000000E+00  0.00000000E+00  0.00000000E+00
  0.00000000E+00  0.00000000E+00  0.00000000E+00
  0.00000000E+00  0.00000000E+00  0.00000000E+00
  0.00000000E+00  0.00000000E+00  0.00000000E+00
  0.00000000E+00  0.00000000E+00  0.00000000E+00
  0.00000000E+00  0.00000000E+00  0.00000000E+00
  0.00000000E+00  0.00000000E+00  0.00000000E+00
  0.00000000E+00  0.00000000E+00  0.00000000E+00
  0.00000000E+00  0.00000000E+00  0.00000000E+00
  0.00000000E+00  0.00000000E+00  0.00000000E+00
  0.00000000E+00  0.00000000E+00  0.00000000E+00
  0.00000000E+00  0.00000000E+00  0.00000000E+00
  0.00000000E+00  0.00000000E+00  0.00000000E+00
  0.00000000E+00  0.00000000E+00  0.00000000E+00
  0.00000000E+00  0.00000000E+00  0.00000000E+00
  0.00000000E+00  0.00000000E+00  0.00000000E+00
  0.00000000E+00  0.00000000E+00  0.00000000E+00
  0.00000000E+00  0.00000000E+00  0.00000000E+00
  0.00000000E+00  0.00000000E+00  0.00000000E+00
  0.00000000E+00  0.00000000E+00  0.00000000E+00
  0.00000000E+00  0.00000000E+00  0.00000000E+00
  0.00000000E+00  0.00000000E+00  0.00000000E+00
