C N O H                                 
   1.00000000000000     
    40.0000000000000000    0.0000000000000000    0.0000000000000000
     0.0000000000000000   40.0000000000000000    0.0000000000000000
     0.0000000000000000    0.0000000000000000   40.0000000000000000
   C    N    O    H 
    10     1     1    17
Selective dynamics
Direct
  0.4705191521606125  0.4688439935943407  0.5004769975093950   T   T   T
  0.4904665387149407  0.4999118189139722  0.5083828782664597   T   T   T
  0.4747737123812783  0.5311723084477222  0.5086065587239901   T   T   T
  0.4393081478949412  0.5364440339690546  0.4992133459641153   T   T   T
  0.4221177348467577  0.5057780372168281  0.4842157228923938   T   T   T
  0.4327024277835534  0.4744544606616543  0.5032847324129364   T   T   T
  0.5461795607907831  0.5243899604912272  0.5231622050796645   T   T   T
  0.5703658590375440  0.5298745405710648  0.4937343413091497   T   T   T
  0.5666927931958980  0.4730137373228871  0.4792408040710114   T   T   T
  0.5423980670011588  0.4661774157472180  0.5084850657681912   T   T   T
  0.5235344763945875  0.4968047914270244  0.5150458648184681   T   T   T
  0.5886811648941546  0.5000259451259339  0.4868405240395930   T   T   T
  0.4257034427841049  0.4769362921930380  0.5298254207250750   T   T   T
  0.4198165750563234  0.4521969834291539  0.4936502254801169   T   T   T
  0.4291851562137907  0.5032432395740827  0.4577130023397658   T   T   T
  0.3948724540321606  0.5090902354958473  0.4849772701593551   T   T   T
  0.4259998884396410  0.5448153043458390  0.5220824592249400   T   T   T
  0.4379597916509042  0.5583416499452412  0.4824580140720229   T   T   T
  0.4887041290973642  0.5534586384390394  0.5156442941103023   T   T   T
  0.5327305070979591  0.5474115588102961  0.5288910297856404   T   T   T
  0.5886156688239481  0.5491955618520379  0.5004174339488543   T   T   T
  0.5561794777342541  0.5379000639416276  0.4714373672986198   T   T   T
  0.5521397481962396  0.4785502761190443  0.4564376452654031   T   T   T
  0.5567182335517558  0.4598043348777239  0.5310347088217995   T   T   T
  0.5259674220394714  0.4453729530709012  0.5020483579049611   T   T   T
  0.5822324991505567  0.4508340070036141  0.4750373940687851   T   T   T
  0.5605101716458449  0.5168694432528511  0.5453481210928288   T   T   T
  0.4767499549960874  0.4605291065106343  0.4749369691734131   T   T   T
  0.4781772443933718  0.4485603076500979  0.5173742456727695   T   T   T
 
  0.00000000E+00  0.00000000E+00  0.00000000E+00
  0.00000000E+00  0.00000000E+00  0.00000000E+00
  0.00000000E+00  0.00000000E+00  0.00000000E+00
  0.00000000E+00  0.00000000E+00  0.00000000E+00
  0.00000000E+00  0.00000000E+00  0.00000000E+00
  0.00000000E+00  0.00000000E+00  0.00000000E+00
  0.00000000E+00  0.00000000E+00  0.00000000E+00
  0.00000000E+00  0.00000000E+00  0.00000000E+00
  0.00000000E+00  0.00000000E+00  0.00000000E+00
  0.00000000E+00  0.00000000E+00  0.00000000E+00
  0.00000000E+00  0.00000000E+00  0.00000000E+00
  0.00000000E+00  0.00000000E+00  0.00000000E+00
  0.00000000E+00  0.00000000E+00  0.00000000E+00
  0.00000000E+00  0.00000000E+00  0.00000000E+00
  0.00000000E+00  0.00000000E+00  0.00000000E+00
  0.00000000E+00  0.00000000E+00  0.00000000E+00
  0.00000000E+00  0.00000000E+00  0.00000000E+00
  0.00000000E+00  0.00000000E+00  0.00000000E+00
  0.00000000E+00  0.00000000E+00  0.00000000E+00
  0.00000000E+00  0.00000000E+00  0.00000000E+00
  0.00000000E+00  0.00000000E+00  0.00000000E+00
  0.00000000E+00  0.00000000E+00  0.00000000E+00
  0.00000000E+00  0.00000000E+00  0.00000000E+00
  0.00000000E+00  0.00000000E+00  0.00000000E+00
  0.00000000E+00  0.00000000E+00  0.00000000E+00
  0.00000000E+00  0.00000000E+00  0.00000000E+00
  0.00000000E+00  0.00000000E+00  0.00000000E+00
  0.00000000E+00  0.00000000E+00  0.00000000E+00
  0.00000000E+00  0.00000000E+00  0.00000000E+00
