C N H                                   
   1.00000000000000     
    40.0000000000000000    0.0000000000000000    0.0000000000000000
     0.0000000000000000   40.0000000000000000    0.0000000000000000
     0.0000000000000000    0.0000000000000000   40.0000000000000000
   C    N    H 
     6     1     7
Selective dynamics
Direct
  0.4949777390817344  0.4690118857958899  0.4999637771925687   T   T   T
  0.5292196590248252  0.4694066176097211  0.5009824830513254   T   T   T
  0.5466346947043020  0.4999990000000025  0.5014094861999548   T   T   T
  0.5292196590248252  0.5305923823902744  0.5009824830513254   T   T   T
  0.4949787390817318  0.5309881142041103  0.4999637771925687   T   T   T
  0.4771393840442824  0.5000000000000000  0.4993320623544229   T   T   T
  0.4440463930116391  0.5000009999999975  0.4981327655734908   T   T   T
  0.4309673772906914  0.5216810200111006  0.4976123677139591   T   T   T
  0.4309663772906939  0.4783209799889017  0.4976123677139591   T   T   T
  0.4810619841221389  0.5541857681582173  0.4995909844767351   T   T   T
  0.5430152815683980  0.5538741352600320  0.5014063917718895   T   T   T
  0.5736974460641738  0.4999990000000025  0.5020146774591663   T   T   T
  0.5430142815684005  0.4461248647399564  0.5014063917718895   T   T   T
  0.4810599841221440  0.4458142318417827  0.4995909844767351   T   T   T
 
  0.00000000E+00  0.00000000E+00  0.00000000E+00
  0.00000000E+00  0.00000000E+00  0.00000000E+00
  0.00000000E+00  0.00000000E+00  0.00000000E+00
  0.00000000E+00  0.00000000E+00  0.00000000E+00
  0.00000000E+00  0.00000000E+00  0.00000000E+00
  0.00000000E+00  0.00000000E+00  0.00000000E+00
  0.00000000E+00  0.00000000E+00  0.00000000E+00
  0.00000000E+00  0.00000000E+00  0.00000000E+00
  0.00000000E+00  0.00000000E+00  0.00000000E+00
  0.00000000E+00  0.00000000E+00  0.00000000E+00
  0.00000000E+00  0.00000000E+00  0.00000000E+00
  0.00000000E+00  0.00000000E+00  0.00000000E+00
  0.00000000E+00  0.00000000E+00  0.00000000E+00
  0.00000000E+00  0.00000000E+00  0.00000000E+00
