C O H                                   
   1.00000000000000     
    40.0000000000000000    0.0000000000000000    0.0000000000000000
     0.0000000000000000   40.0000000000000000    0.0000000000000000
     0.0000000000000000    0.0000000000000000   40.0000000000000000
   C    O    H 
    10     1    12
Selective dynamics
Direct
  0.5028975863869235  0.5300493943632437  0.5000003160433992   T   T   T
  0.4688943186732916  0.5358778475223004  0.4999985817734558   T   T   T
  0.4463360947636030  0.5091055698292219  0.5000000991388350   T   T   T
  0.4584771871972408  0.4764569390337636  0.5000023245093860   T   T   T
  0.4928762838423426  0.4710792206074420  0.5000031614752057   T   T   T
  0.5159216145278472  0.4973751732393464  0.5000029010327162   T   T   T
  0.5516712844924015  0.4898728068876032  0.5000034490691354   T   T   T
  0.5771492166646612  0.5116020365529393  0.4999987088853919   T   T   T
  0.6131510818946652  0.5019105826619400  0.4999999900924273   T   T   T
  0.3894375325352109  0.4910991355101482  0.4999964565324653   T   T   T
  0.4133093724970182  0.5175747429917879  0.4999983562973242   T   T   T
  0.6261138692050704  0.5120592340641885  0.5218805618591531   T   T   T
  0.6261142543725676  0.5120518365868717  0.4781162270047511   T   T   T
  0.6163037114747522  0.4748079903531314  0.5000047470728182   T   T   T
  0.5720873785810316  0.5383275333387206  0.4999946222474774   T   T   T
  0.5577182012850146  0.4633002764690970  0.5000067022348149   T   T   T
  0.5020969811136133  0.4455433121259203  0.5000050725204732   T   T   T
  0.4416781744447465  0.4552573047472268  0.5000022764346732   T   T   T
  0.3919665574551421  0.4755295185321408  0.5223330078657779   T   T   T
  0.3919703998482422  0.4755283958774350  0.4776612863086699   T   T   T
  0.3650732295069430  0.5031364020156346  0.4999943489811897   T   T   T
  0.4590627373477265  0.5611291204604348  0.4999968473411481   T   T   T
  0.5196949318899677  0.5513256262294688  0.4999989552792999   T   T   T
 
  0.00000000E+00  0.00000000E+00  0.00000000E+00
  0.00000000E+00  0.00000000E+00  0.00000000E+00
  0.00000000E+00  0.00000000E+00  0.00000000E+00
  0.00000000E+00  0.00000000E+00  0.00000000E+00
  0.00000000E+00  0.00000000E+00  0.00000000E+00
  0.00000000E+00  0.00000000E+00  0.00000000E+00
  0.00000000E+00  0.00000000E+00  0.00000000E+00
  0.00000000E+00  0.00000000E+00  0.00000000E+00
  0.00000000E+00  0.00000000E+00  0.00000000E+00
  0.00000000E+00  0.00000000E+00  0.00000000E+00
  0.00000000E+00  0.00000000E+00  0.00000000E+00
  0.00000000E+00  0.00000000E+00  0.00000000E+00
  0.00000000E+00  0.00000000E+00  0.00000000E+00
  0.00000000E+00  0.00000000E+00  0.00000000E+00
  0.00000000E+00  0.00000000E+00  0.00000000E+00
  0.00000000E+00  0.00000000E+00  0.00000000E+00
  0.00000000E+00  0.00000000E+00  0.00000000E+00
  0.00000000E+00  0.00000000E+00  0.00000000E+00
  0.00000000E+00  0.00000000E+00  0.00000000E+00
  0.00000000E+00  0.00000000E+00  0.00000000E+00
  0.00000000E+00  0.00000000E+00  0.00000000E+00
  0.00000000E+00  0.00000000E+00  0.00000000E+00
  0.00000000E+00  0.00000000E+00  0.00000000E+00
