C H                                     
   1.00000000000000     
    40.0000000000000000    0.0000000000000000    0.0000000000000000
     0.0000000000000000   40.0000000000000000    0.0000000000000000
     0.0000000000000000    0.0000000000000000   40.0000000000000000
   C    H 
    12    14
Selective dynamics
Direct
  0.5205329484547718  0.4856899788095390  0.4964686261316373   T   T   T
  0.5478688347167733  0.4638503089804402  0.5005419778617224   T   T   T
  0.5805189783060598  0.4755051370567571  0.5037643205570674   T   T   T
  0.5868288612784482  0.5098621594903037  0.5020914076703988   T   T   T
  0.5602464622170586  0.5318861452227281  0.4977566595705269   T   T   T
  0.5268600918936741  0.5207572445747886  0.4956577789536354   T   T   T
  0.5008188068646504  0.5465637914953660  0.4933372002614291   T   T   T
  0.4695482176693488  0.5454668636350561  0.5057601025881979   T   T   T
  0.4446847503371671  0.5732564264793112  0.5033547012962742   T   T   T
  0.4868093974244800  0.4719905862297082  0.4914297396658469   T   T   T
  0.4746166866981838  0.4438289324451929  0.5051852110681736   T   T   T
  0.4405505530830780  0.4298913468736174  0.4986539863228003   T   T   T
  0.4217200205258536  0.5648484888873639  0.4906631730483966   T   T   T
  0.4368706809825440  0.5817831864891261  0.5283613324782976   T   T   T
  0.4546469994460693  0.5948503862256018  0.4896116778652271   T   T   T
  0.4613521737900541  0.5231204397312723  0.5192312923866425   T   T   T
  0.5089066664941271  0.5699138335744962  0.4814534479743386   T   T   T
  0.5650781531603712  0.5587340849737004  0.4965541777911042   T   T   T
  0.6123231970261571  0.5193545097133239  0.5039562593873654   T   T   T
  0.6010595037535893  0.4578275792115747  0.5067957040899742   T   T   T
  0.5432079681229496  0.4369714634619655  0.5001979027368932   T   T   T
  0.4264260537792595  0.4453527603650826  0.4808848156588610   T   T   T
  0.4420269235007908  0.4043359436192802  0.4884556664762698   T   T   T
  0.4259329635458613  0.4279795847647350  0.5219293784056305   T   T   T
  0.4901403555394737  0.4299257250800963  0.5229702519746198   T   T   T
  0.4704247513892028  0.4864520926095608  0.4749322077786786   T   T   T
 
  0.00000000E+00  0.00000000E+00  0.00000000E+00
  0.00000000E+00  0.00000000E+00  0.00000000E+00
  0.00000000E+00  0.00000000E+00  0.00000000E+00
  0.00000000E+00  0.00000000E+00  0.00000000E+00
  0.00000000E+00  0.00000000E+00  0.00000000E+00
  0.00000000E+00  0.00000000E+00  0.00000000E+00
  0.00000000E+00  0.00000000E+00  0.00000000E+00
  0.00000000E+00  0.00000000E+00  0.00000000E+00
  0.00000000E+00  0.00000000E+00  0.00000000E+00
  0.00000000E+00  0.00000000E+00  0.00000000E+00
  0.00000000E+00  0.00000000E+00  0.00000000E+00
  0.00000000E+00  0.00000000E+00  0.00000000E+00
  0.00000000E+00  0.00000000E+00  0.00000000E+00
  0.00000000E+00  0.00000000E+00  0.00000000E+00
  0.00000000E+00  0.00000000E+00  0.00000000E+00
  0.00000000E+00  0.00000000E+00  0.00000000E+00
  0.00000000E+00  0.00000000E+00  0.00000000E+00
  0.00000000E+00  0.00000000E+00  0.00000000E+00
  0.00000000E+00  0.00000000E+00  0.00000000E+00
  0.00000000E+00  0.00000000E+00  0.00000000E+00
  0.00000000E+00  0.00000000E+00  0.00000000E+00
  0.00000000E+00  0.00000000E+00  0.00000000E+00
  0.00000000E+00  0.00000000E+00  0.00000000E+00
  0.00000000E+00  0.00000000E+00  0.00000000E+00
  0.00000000E+00  0.00000000E+00  0.00000000E+00
  0.00000000E+00  0.00000000E+00  0.00000000E+00
