C N H                                   
   1.00000000000000     
    40.0000000000000000    0.0000000000000000    0.0000000000000000
     0.0000000000000000   40.0000000000000000    0.0000000000000000
     0.0000000000000000    0.0000000000000000   40.0000000000000000
   C    N    H 
     8     2     4
Selective dynamics
Direct
  0.4694110165534103  0.4896407234373352  0.4999985165997611   T   T   T
  0.4693851395401983  0.5260528344907298  0.5000053183161326   T   T   T
  0.5000008784589898  0.5427808559220173  0.4999991995276003   T   T   T
  0.5306158928917407  0.5260508045872347  0.4999899648356467   T   T   T
  0.5305882835123370  0.4896389426447812  0.4999942695786154   T   T   T
  0.4999988269321112  0.4723665363803528  0.4999933833642503   T   T   T
  0.5608775612968669  0.4717719496237006  0.5000065044318150   T   T   T
  0.4391225444944805  0.4717763558874544  0.4999982407976641   T   T   T
  0.5868611765644590  0.4577264627495914  0.5000199486929729   T   T   T
  0.4131356815557206  0.4577292538996089  0.4999982075230080   T   T   T
  0.4999982162476287  0.4450761680788962  0.4999938653440576   T   T   T
  0.5542103992989479  0.5396350460175420  0.4999905278228019   T   T   T
  0.5000015107562387  0.5701182832586723  0.5000026184156039   T   T   T
  0.4457908718968891  0.5396377830220711  0.5000104347500539   T   T   T
 
  0.00000000E+00  0.00000000E+00  0.00000000E+00
  0.00000000E+00  0.00000000E+00  0.00000000E+00
  0.00000000E+00  0.00000000E+00  0.00000000E+00
  0.00000000E+00  0.00000000E+00  0.00000000E+00
  0.00000000E+00  0.00000000E+00  0.00000000E+00
  0.00000000E+00  0.00000000E+00  0.00000000E+00
  0.00000000E+00  0.00000000E+00  0.00000000E+00
  0.00000000E+00  0.00000000E+00  0.00000000E+00
  0.00000000E+00  0.00000000E+00  0.00000000E+00
  0.00000000E+00  0.00000000E+00  0.00000000E+00
  0.00000000E+00  0.00000000E+00  0.00000000E+00
  0.00000000E+00  0.00000000E+00  0.00000000E+00
  0.00000000E+00  0.00000000E+00  0.00000000E+00
  0.00000000E+00  0.00000000E+00  0.00000000E+00
