!B3LYP freq aug-cc-pVTZ d3 TightSCF SlowConv RIJCOSX defgrid2

%pal
nprocs 12

end

%scf
MaxIter 1500
end

%maxcore 5000

!CPCM
%cpcm smd true
SMDsolvent "MeCN"
surfacetype gepol_ses
rsolv 2.19
end 

* xyz 1 2
C           0.95315964814709     -1.31174558165034      0.00173772632124
C           2.29716245510829     -1.05095401100247     -0.00153415863795
C           2.74516264046527      0.28181294173565     -0.00201351282069
C           1.84197152749627      1.35818457536566      0.00071057697819
C           0.49593722617564      1.11550664442805      0.00325548427247
C           0.02398395564649     -0.23365546846776      0.00353112253666
C          -1.35026149157597     -0.54319533565714      0.00312739938331
N          -2.23496899387835      0.43270305209163     -0.00033669353668
O          -3.48027377332980     -0.05609641922748     -0.00564253372985
H          -4.06600157370416      0.72684180469358     -0.00584540616838
H          -1.68099125439443     -1.57695635625673      0.00403515376454
H          -0.21623159437256      1.92583623579300      0.00533726844336
H           2.21605496313938      2.37102285600292      0.00016580913073
H           3.80745732853718      0.48165522814454     -0.00472399471553
H           3.01470795531907     -1.85759236459348     -0.00382494608930
H           0.58082388122059     -2.32599180139962      0.00221130486790
*
