C N H                                   
   1.00000000000000     
    40.0000000000000000    0.0000000000000000    0.0000000000000000
     0.0000000000000000   40.0000000000000000    0.0000000000000000
     0.0000000000000000    0.0000000000000000   40.0000000000000000
   C    N    H 
     6     1    15
Selective dynamics
Direct
  0.4421932065734069  0.4710809376915535  0.4926629221846071   T   T   T
  0.4691540707927189  0.4983815955039930  0.4931781785290497   T   T   T
  0.5319839245253135  0.4938078044820173  0.4917132164537108   T   T   T
  0.5403500477898504  0.5314079937307881  0.4912442749613675   T   T   T
  0.5601302190629482  0.4740438901386383  0.5084804320560110   T   T   T
  0.4560844477017696  0.5296920563484306  0.5111898405215527   T   T   T
  0.5001995027096910  0.4849060266596794  0.5079421677461937   T   T   T
  0.5013492298613755  0.4910335935786279  0.5327406312489558   T   T   T
  0.5420904058792289  0.5411725604283433  0.5169416316113029   T   T   T
  0.5212476175021692  0.5458854120220522  0.4778178038630188   T   T   T
  0.5644874155651749  0.5358607557773283  0.4787913391567855   T   T   T
  0.5548637026067880  0.4471025134015889  0.5078887419374212   T   T   T
  0.5841672671846609  0.4785978957742643  0.4959806493009538   T   T   T
  0.5628615137383264  0.4816484362333000  0.5348178105520773   T   T   T
  0.5299110347729794  0.4852885859143043  0.4655190062341106   T   T   T
  0.4745311742372920  0.5500171231389217  0.5109235234832568   T   T   T
  0.4503438694220421  0.5237382505152084  0.5374745638812755   T   T   T
  0.4329507432696715  0.5389421733152631  0.4995278714136688   T   T   T
  0.4749255428943755  0.5050874056278545  0.4670342645538312   T   T   T
  0.4509746350208559  0.4490414884886818  0.4788402840247485   T   T   T
  0.4362002331242891  0.4631493278587868  0.5183346816497760   T   T   T
  0.4189991957650676  0.4801161733703978  0.4809571646363295   T   T   T
 
  0.00000000E+00  0.00000000E+00  0.00000000E+00
  0.00000000E+00  0.00000000E+00  0.00000000E+00
  0.00000000E+00  0.00000000E+00  0.00000000E+00
  0.00000000E+00  0.00000000E+00  0.00000000E+00
  0.00000000E+00  0.00000000E+00  0.00000000E+00
  0.00000000E+00  0.00000000E+00  0.00000000E+00
  0.00000000E+00  0.00000000E+00  0.00000000E+00
  0.00000000E+00  0.00000000E+00  0.00000000E+00
  0.00000000E+00  0.00000000E+00  0.00000000E+00
  0.00000000E+00  0.00000000E+00  0.00000000E+00
  0.00000000E+00  0.00000000E+00  0.00000000E+00
  0.00000000E+00  0.00000000E+00  0.00000000E+00
  0.00000000E+00  0.00000000E+00  0.00000000E+00
  0.00000000E+00  0.00000000E+00  0.00000000E+00
  0.00000000E+00  0.00000000E+00  0.00000000E+00
  0.00000000E+00  0.00000000E+00  0.00000000E+00
  0.00000000E+00  0.00000000E+00  0.00000000E+00
  0.00000000E+00  0.00000000E+00  0.00000000E+00
  0.00000000E+00  0.00000000E+00  0.00000000E+00
  0.00000000E+00  0.00000000E+00  0.00000000E+00
  0.00000000E+00  0.00000000E+00  0.00000000E+00
  0.00000000E+00  0.00000000E+00  0.00000000E+00
