C O H                                   
   1.00000000000000     
    25.0000000000000000    0.0000000000000000    0.0000000000000000
     0.0000000000000000   25.0000000000000000    0.0000000000000000
     0.0000000000000000    0.0000000000000000   25.0000000000000000
   C    O    H 
     7     2     6
Selective dynamics
Direct
  0.4753403094856594  0.4972792371499955  0.4289104680024179   T   T   T
  0.4284317146789644  0.4774572436331440  0.4590997552360573   T   T   T
  0.5236134028591193  0.5122495334161888  0.4589981297886505   T   T   T
  0.4302853823527970  0.4733811927548353  0.5127666582129514   T   T   T
  0.5265641197146805  0.5085418522890217  0.5129955009225656   T   T   T
  0.4788275722340689  0.4884816741249427  0.5430376191857544   T   T   T
  0.5749556286516040  0.5234163786906190  0.5446176514209479   T   T   T
  0.4797732791792289  0.4845386527995783  0.5925277571187623   T   T   T
  0.4737303013671821  0.5011021989235235  0.3792642141248435   T   T   T
  0.3930979340771193  0.4665788790597035  0.4358619130038393   T   T   T
  0.5573298472136118  0.5266889368898824  0.4352851934517217   T   T   T
  0.3964845891556982  0.4589371297788793  0.5363097309389090   T   T   T
  0.5651442716602066  0.5548785774203057  0.5738089095704266   T   T   T
  0.5892190730233453  0.4889671824485688  0.5680222988067508   T   T   T
  0.6072025743467138  0.5375013306208124  0.5184922002154129   T   T   T
 
  0.00000000E+00  0.00000000E+00  0.00000000E+00
  0.00000000E+00  0.00000000E+00  0.00000000E+00
  0.00000000E+00  0.00000000E+00  0.00000000E+00
  0.00000000E+00  0.00000000E+00  0.00000000E+00
  0.00000000E+00  0.00000000E+00  0.00000000E+00
  0.00000000E+00  0.00000000E+00  0.00000000E+00
  0.00000000E+00  0.00000000E+00  0.00000000E+00
  0.00000000E+00  0.00000000E+00  0.00000000E+00
  0.00000000E+00  0.00000000E+00  0.00000000E+00
  0.00000000E+00  0.00000000E+00  0.00000000E+00
  0.00000000E+00  0.00000000E+00  0.00000000E+00
  0.00000000E+00  0.00000000E+00  0.00000000E+00
  0.00000000E+00  0.00000000E+00  0.00000000E+00
  0.00000000E+00  0.00000000E+00  0.00000000E+00
  0.00000000E+00  0.00000000E+00  0.00000000E+00
