!PBE0 freq def2-SV(p) d3 TightSCF SlowConv RIJCOSX defgrid2

%pal
nprocs 12
end

%scf
MaxIter 1500
end

%maxcore 5000

!CPCM
%cpcm smd true
SMDsolvent "MeCN"
surfacetype gepol_ses
rsolv 2.19
end 

* xyz 1 2
C           0.95754470739541     -1.32189789267079      0.00156759341445
C           2.30668086272369     -1.05177329444134     -0.00204885035746
C           2.74835642092471      0.28687445358455     -0.00228734166262
C           1.83658782250486      1.36109131615935      0.00089143663716
C           0.48526291686463      1.10833693955532      0.00341205405267
C           0.02083358781704     -0.24596480661330      0.00361128488158
C          -1.35704921756010     -0.55374984794336      0.00352936744045
N          -2.23947863364352      0.42797844004526     -0.00064407869463
O          -3.46448031815371     -0.02724466096486     -0.00536320698577
H          -4.05879222945111      0.75997522712910     -0.00739434482383
H          -1.69966940746775     -1.59695770762662      0.00517152839865
H          -0.24228179455787      1.92231994731139      0.00573964445467
H           2.20754169753390      2.38851790575346      0.00079996656408
H           3.82198636247346      0.49526449399696     -0.00503750875427
H           3.03608872039141     -1.86491327155796     -0.00454474676270
H           0.58856140220496     -2.35048124171715      0.00278780219756
*
