C H                                     
   1.00000000000000     
    40.0000000000000000    0.0000000000000000    0.0000000000000000
     0.0000000000000000   40.0000000000000000    0.0000000000000000
     0.0000000000000000    0.0000000000000000   40.0000000000000000
   C    H 
    10    12
Selective dynamics
Direct
  0.5266689388720023  0.4687410958786316  0.5000028398794153   T   T   T
  0.5358349927406831  0.5024363690323747  0.5000003213846800   T   T   T
  0.5102645861866628  0.5262319895992300  0.5000018377796426   T   T   T
  0.4765931236549046  0.5175631301392115  0.5000004926642833   T   T   T
  0.4677747562437328  0.4836184988919995  0.5000021679377615   T   T   T
  0.4932395806755729  0.4597855965827487  0.5000036503820358   T   T   T
  0.4318677309514064  0.4730460103464960  0.5000000660493158   T   T   T
  0.4502154371838870  0.5441462001910493  0.4999982165120478   T   T   T
  0.5705973431488237  0.5139537662225273  0.5000047827013597   T   T   T
  0.5981174235569755  0.4951168588644418  0.4999955083964394   T   T   T
  0.4865368908612906  0.4334829369377080  0.5000054750068780   T   T   T
  0.4296704457599847  0.4458780407027704  0.5000019307848657   T   T   T
  0.4186313068620474  0.4826561514408587  0.4780741863055770   T   T   T
  0.4186293624274840  0.4826597572487362  0.5219229147784122   T   T   T
  0.4339923593079957  0.5420650713370793  0.5219217967878854   T   T   T
  0.4339901061676443  0.5420607113528642  0.4780766777263878   T   T   T
  0.4613111549286960  0.5690422947418181  0.4999954364807880   T   T   T
  0.5169445342131030  0.5525527804628068  0.5000014031336395   T   T   T
  0.5973064981537330  0.4680104676934208  0.4999783707073159   T   T   T
  0.6226540660732675  0.5065891409416812  0.4999923391665246   T   T   T
  0.5735482519409477  0.5409999057662521  0.5000128093678744   T   T   T
  0.5456101100891502  0.4493642256253056  0.5000067760668704   T   T   T
 
  0.00000000E+00  0.00000000E+00  0.00000000E+00
  0.00000000E+00  0.00000000E+00  0.00000000E+00
  0.00000000E+00  0.00000000E+00  0.00000000E+00
  0.00000000E+00  0.00000000E+00  0.00000000E+00
  0.00000000E+00  0.00000000E+00  0.00000000E+00
  0.00000000E+00  0.00000000E+00  0.00000000E+00
  0.00000000E+00  0.00000000E+00  0.00000000E+00
  0.00000000E+00  0.00000000E+00  0.00000000E+00
  0.00000000E+00  0.00000000E+00  0.00000000E+00
  0.00000000E+00  0.00000000E+00  0.00000000E+00
  0.00000000E+00  0.00000000E+00  0.00000000E+00
  0.00000000E+00  0.00000000E+00  0.00000000E+00
  0.00000000E+00  0.00000000E+00  0.00000000E+00
  0.00000000E+00  0.00000000E+00  0.00000000E+00
  0.00000000E+00  0.00000000E+00  0.00000000E+00
  0.00000000E+00  0.00000000E+00  0.00000000E+00
  0.00000000E+00  0.00000000E+00  0.00000000E+00
  0.00000000E+00  0.00000000E+00  0.00000000E+00
  0.00000000E+00  0.00000000E+00  0.00000000E+00
  0.00000000E+00  0.00000000E+00  0.00000000E+00
  0.00000000E+00  0.00000000E+00  0.00000000E+00
  0.00000000E+00  0.00000000E+00  0.00000000E+00
