C N H                                   
   1.00000000000000     
    40.0000000000000000    0.0000000000000000    0.0000000000000000
     0.0000000000000000   40.0000000000000000    0.0000000000000000
     0.0000000000000000    0.0000000000000000   40.0000000000000000
   C    N    H 
     6     2     8
Selective dynamics
Direct
  0.4813058926749519  0.5351265251469010  0.4992233345600496   T   T   T
  0.4518539997993684  0.5177655228123944  0.4997223539149138   T   T   T
  0.4518520589050893  0.4822347978884049  0.5002802407379342   T   T   T
  0.4813056820802813  0.4648741085319577  0.5007789391886561   T   T   T
  0.5123985229443260  0.4818698304662428  0.5007931136085036   T   T   T
  0.5124003373471975  0.5181304413726072  0.4992091306740022   T   T   T
  0.5408642062464413  0.4644636894454183  0.5022716618666354   T   T   T
  0.5408653313413314  0.5355362870583331  0.4977252976247055   T   T   T
  0.5637128549857295  0.4749234160875646  0.5037818942381078   T   T   T
  0.5400102191802391  0.4392598360104719  0.5033959647738673   T   T   T
  0.5637142462326552  0.5250739295242456  0.4962167675168788   T   T   T
  0.5400130480116659  0.5607400003753391  0.4966025401218187   T   T   T
  0.4815496545629022  0.4378020540585459  0.5015261884542590   T   T   T
  0.4283009119069249  0.4688655535820532  0.5004451526285747   T   T   T
  0.4283023854799183  0.5311358231582120  0.4995533264843505   T   T   T
  0.4815506483009647  0.5621981844813229  0.4984730936067598   T   T   T
 
  0.00000000E+00  0.00000000E+00  0.00000000E+00
  0.00000000E+00  0.00000000E+00  0.00000000E+00
  0.00000000E+00  0.00000000E+00  0.00000000E+00
  0.00000000E+00  0.00000000E+00  0.00000000E+00
  0.00000000E+00  0.00000000E+00  0.00000000E+00
  0.00000000E+00  0.00000000E+00  0.00000000E+00
  0.00000000E+00  0.00000000E+00  0.00000000E+00
  0.00000000E+00  0.00000000E+00  0.00000000E+00
  0.00000000E+00  0.00000000E+00  0.00000000E+00
  0.00000000E+00  0.00000000E+00  0.00000000E+00
  0.00000000E+00  0.00000000E+00  0.00000000E+00
  0.00000000E+00  0.00000000E+00  0.00000000E+00
  0.00000000E+00  0.00000000E+00  0.00000000E+00
  0.00000000E+00  0.00000000E+00  0.00000000E+00
  0.00000000E+00  0.00000000E+00  0.00000000E+00
  0.00000000E+00  0.00000000E+00  0.00000000E+00
