C H                                     
   1.00000000000000     
    40.0000000000000000    0.0000000000000000    0.0000000000000000
     0.0000000000000000   40.0000000000000000    0.0000000000000000
     0.0000000000000000    0.0000000000000000   40.0000000000000000
   C    H 
    14    12
Selective dynamics
Direct
  0.5603934633745622  0.4777337496385144  0.5149033863676415   T   T   T
  0.5314097961683728  0.4905125315139156  0.4992429906379007   T   T   T
  0.5334393320859314  0.5212239368905729  0.4817695179532821   T   T   T
  0.5633096638231477  0.5384153702457766  0.4801687200855623   T   T   T
  0.5915100119228949  0.5257916945649519  0.4964188229797569   T   T   T
  0.5898962666384580  0.4955237401069798  0.5138922834642273   T   T   T
  0.5000000000000000  0.4724190744670130  0.5000000000000000   T   T   T
  0.5000000000000000  0.4377511134098583  0.4999990000000025   T   T   T
  0.4685902038316344  0.4905125315139156  0.5007570093620992   T   T   T
  0.4396065366254379  0.4777347496385190  0.4850966136323584   T   T   T
  0.4101037333615422  0.4955247401069773  0.4861077165357727   T   T   T
  0.4084899880771050  0.5257926945649494  0.5035811770202433   T   T   T
  0.4366903361768523  0.5384153702457766  0.5198322799144496   T   T   T
  0.4665606679140687  0.5212239368905729  0.5182314820467152   T   T   T
  0.6117906287635674  0.4861271526354593  0.5267072705871023   T   T   T
  0.6148984007923674  0.5393762968371012  0.4952658552855236   T   T   T
  0.5649198324469796  0.5614543873405823  0.4660725084996732   T   T   T
  0.5117060756972551  0.5303599306797314  0.4684484284342361   T   T   T
  0.4768724186428084  0.4237611392990142  0.4993444702464556   T   T   T
  0.5231265813571944  0.4237601392990096  0.5006535297535425   T   T   T
  0.4882939243027449  0.5303589306797339  0.5315525715657615   T   T   T
  0.4350801675530203  0.5614533873405848  0.5339294915003288   T   T   T
  0.3851015992076328  0.5393772968371058  0.5047351447144740   T   T   T
  0.3882093712364326  0.4861281526354568  0.4732917294129000   T   T   T
  0.4409545611965399  0.4546334763089754  0.4710558561909830   T   T   T
  0.5590454388034600  0.4546324763089780  0.5289421438090151   T   T   T
 
  0.00000000E+00  0.00000000E+00  0.00000000E+00
  0.00000000E+00  0.00000000E+00  0.00000000E+00
  0.00000000E+00  0.00000000E+00  0.00000000E+00
  0.00000000E+00  0.00000000E+00  0.00000000E+00
  0.00000000E+00  0.00000000E+00  0.00000000E+00
  0.00000000E+00  0.00000000E+00  0.00000000E+00
  0.00000000E+00  0.00000000E+00  0.00000000E+00
  0.00000000E+00  0.00000000E+00  0.00000000E+00
  0.00000000E+00  0.00000000E+00  0.00000000E+00
  0.00000000E+00  0.00000000E+00  0.00000000E+00
  0.00000000E+00  0.00000000E+00  0.00000000E+00
  0.00000000E+00  0.00000000E+00  0.00000000E+00
  0.00000000E+00  0.00000000E+00  0.00000000E+00
  0.00000000E+00  0.00000000E+00  0.00000000E+00
  0.00000000E+00  0.00000000E+00  0.00000000E+00
  0.00000000E+00  0.00000000E+00  0.00000000E+00
  0.00000000E+00  0.00000000E+00  0.00000000E+00
  0.00000000E+00  0.00000000E+00  0.00000000E+00
  0.00000000E+00  0.00000000E+00  0.00000000E+00
  0.00000000E+00  0.00000000E+00  0.00000000E+00
  0.00000000E+00  0.00000000E+00  0.00000000E+00
  0.00000000E+00  0.00000000E+00  0.00000000E+00
  0.00000000E+00  0.00000000E+00  0.00000000E+00
  0.00000000E+00  0.00000000E+00  0.00000000E+00
  0.00000000E+00  0.00000000E+00  0.00000000E+00
  0.00000000E+00  0.00000000E+00  0.00000000E+00
