C Cl O H                                
   1.00000000000000     
    40.0000000000000000    0.0000000000000000    0.0000000000000000
     0.0000000000000000   40.0000000000000000    0.0000000000000000
     0.0000000000000000    0.0000000000000000   40.0000000000000000
   C    Cl   O    H 
     7     1     1     5
Selective dynamics
Direct
  0.4967018269587656  0.4686696968429184  0.4999856497562053   T   T   T
  0.4628968483813112  0.4763238856154270  0.4999831391485342   T   T   T
  0.4516675808670931  0.5097515010529488  0.4999962800868866   T   T   T
  0.4758112107439997  0.5354966904465384  0.5000114442748617   T   T   T
  0.5097784212032301  0.5284918675200070  0.5000114786574013   T   T   T
  0.5216977542440847  0.4946673510772228  0.5000012139303158   T   T   T
  0.5556711130447254  0.4845421340909677  0.5000043554417337   T   T   T
  0.5869556847111751  0.5210856440933843  0.5000152299670958   T   T   T
  0.5686559276678944  0.4563188363586115  0.4999971343536291   T   T   T
  0.5278166041759386  0.5489034850836937  0.5000314688165870   T   T   T
  0.4676989300589671  0.5615965294829817  0.5000265319668067   T   T   T
  0.4250218139437128  0.5155591954853096  0.4999941292621852   T   T   T
  0.4446980678554509  0.4559236542107976  0.4999688467911181   T   T   T
  0.5049272161436396  0.4426705286391962  0.4999730975466325   T   T   T
 
  0.00000000E+00  0.00000000E+00  0.00000000E+00
  0.00000000E+00  0.00000000E+00  0.00000000E+00
  0.00000000E+00  0.00000000E+00  0.00000000E+00
  0.00000000E+00  0.00000000E+00  0.00000000E+00
  0.00000000E+00  0.00000000E+00  0.00000000E+00
  0.00000000E+00  0.00000000E+00  0.00000000E+00
  0.00000000E+00  0.00000000E+00  0.00000000E+00
  0.00000000E+00  0.00000000E+00  0.00000000E+00
  0.00000000E+00  0.00000000E+00  0.00000000E+00
  0.00000000E+00  0.00000000E+00  0.00000000E+00
  0.00000000E+00  0.00000000E+00  0.00000000E+00
  0.00000000E+00  0.00000000E+00  0.00000000E+00
  0.00000000E+00  0.00000000E+00  0.00000000E+00
  0.00000000E+00  0.00000000E+00  0.00000000E+00
