C H                                     
   1.00000000000000     
    40.0000000000000000    0.0000000000000000    0.0000000000000000
     0.0000000000000000   40.0000000000000000    0.0000000000000000
     0.0000000000000000    0.0000000000000000   40.0000000000000000
   C    H 
     8     6
Selective dynamics
Direct
  0.5343460944534277  0.4698745143593960  0.4999997644987444   T   T   T
  0.5518297787004312  0.5000003032981282  0.5000003210753461   T   T   T
  0.5343455136476942  0.5301251475433407  0.4999998301190230   T   T   T
  0.4996144044123771  0.5302889633564140  0.4999977446394564   T   T   T
  0.4818383925119116  0.4999980495838801  0.4999958919935886   T   T   T
  0.4996160661439148  0.4697079008023670  0.4999973599904908   T   T   T
  0.4462970419911149  0.4999995310008978  0.4999969864349167   T   T   T
  0.4160946984721104  0.5000044007145198  0.5000023934275246   T   T   T
  0.4860073351549979  0.4462722177575024  0.4999981877262741   T   T   T
  0.3894482431279615  0.5000031395161055  0.5000100652975974   T   T   T
  0.4860038936351899  0.5537231631410789  0.4999982197821023   T   T   T
  0.5478148164275961  0.5536436073706607  0.5000009643554270   T   T   T
  0.5789254944138665  0.5000010255888659  0.5000013047698383   T   T   T
  0.5478182269074067  0.4463570359668456  0.5000009658896776   T   T   T
 
  0.00000000E+00  0.00000000E+00  0.00000000E+00
  0.00000000E+00  0.00000000E+00  0.00000000E+00
  0.00000000E+00  0.00000000E+00  0.00000000E+00
  0.00000000E+00  0.00000000E+00  0.00000000E+00
  0.00000000E+00  0.00000000E+00  0.00000000E+00
  0.00000000E+00  0.00000000E+00  0.00000000E+00
  0.00000000E+00  0.00000000E+00  0.00000000E+00
  0.00000000E+00  0.00000000E+00  0.00000000E+00
  0.00000000E+00  0.00000000E+00  0.00000000E+00
  0.00000000E+00  0.00000000E+00  0.00000000E+00
  0.00000000E+00  0.00000000E+00  0.00000000E+00
  0.00000000E+00  0.00000000E+00  0.00000000E+00
  0.00000000E+00  0.00000000E+00  0.00000000E+00
  0.00000000E+00  0.00000000E+00  0.00000000E+00
