C H                                     
   1.00000000000000     
    40.0000000000000000    0.0000000000000000    0.0000000000000000
     0.0000000000000000   40.0000000000000000    0.0000000000000000
     0.0000000000000000    0.0000000000000000   40.0000000000000000
   C    H 
    10     8
Selective dynamics
Direct
  0.5612736035997301  0.4825708496925145  0.5000000000000000   T   T   T
  0.5612736035997301  0.5174271503074905  0.5000000000000000   T   T   T
  0.5308948758778627  0.5351010793899675  0.5000000000000000   T   T   T
  0.5000000000000000  0.5179035855317196  0.5000000000000000   T   T   T
  0.4691061241221419  0.5351020793899650  0.5000000000000000   T   T   T
  0.4387263964002699  0.5174291503074855  0.5000000000000000   T   T   T
  0.4387263964002699  0.4825728496925095  0.5000000000000000   T   T   T
  0.4691051241221373  0.4648989206100325  0.5000000000000000   T   T   T
  0.5000000000000000  0.4820964144682804  0.5000000000000000   T   T   T
  0.5308938758778581  0.4648979206100350  0.5000000000000000   T   T   T
  0.5309681439758123  0.4376153793231623  0.5000000000000000   T   T   T
  0.4690298560241857  0.4376163793231669  0.5000000000000000   T   T   T
  0.4151903083488193  0.4688747426733855  0.5000000000000000   T   T   T
  0.4151913083488168  0.5311282573266141  0.5000000000000000   T   T   T
  0.4690318560241877  0.5623846206768377  0.5000000000000000   T   T   T
  0.5309701439758143  0.5623836206768331  0.5000000000000000   T   T   T
  0.5848096916511807  0.5311252573266145  0.5000000000000000   T   T   T
  0.5848086916511832  0.4688727426733905  0.5000000000000000   T   T   T
 
  0.00000000E+00  0.00000000E+00  0.00000000E+00
  0.00000000E+00  0.00000000E+00  0.00000000E+00
  0.00000000E+00  0.00000000E+00  0.00000000E+00
  0.00000000E+00  0.00000000E+00  0.00000000E+00
  0.00000000E+00  0.00000000E+00  0.00000000E+00
  0.00000000E+00  0.00000000E+00  0.00000000E+00
  0.00000000E+00  0.00000000E+00  0.00000000E+00
  0.00000000E+00  0.00000000E+00  0.00000000E+00
  0.00000000E+00  0.00000000E+00  0.00000000E+00
  0.00000000E+00  0.00000000E+00  0.00000000E+00
  0.00000000E+00  0.00000000E+00  0.00000000E+00
  0.00000000E+00  0.00000000E+00  0.00000000E+00
  0.00000000E+00  0.00000000E+00  0.00000000E+00
  0.00000000E+00  0.00000000E+00  0.00000000E+00
  0.00000000E+00  0.00000000E+00  0.00000000E+00
  0.00000000E+00  0.00000000E+00  0.00000000E+00
  0.00000000E+00  0.00000000E+00  0.00000000E+00
  0.00000000E+00  0.00000000E+00  0.00000000E+00
