!PBE0 def2-SV(p) Opt Freq d3 TightSCF SlowConv RIJCOSX defgrid2
 
%pal
nprocs 8
end
 
%scf
MaxIter 1500
end
 
%maxcore 3000
 

 
* xyz 0 1
6        0.421947000     -1.696321000     -0.044242500
6       -0.976513500     -1.817526500     -0.016545000
6       -1.702130500     -0.645972500      0.026484000
6       -1.071118000      0.598743500      0.048634500
6        0.296893500      0.729697000      0.031371500
6        1.073174000     -0.455111000     -0.018782000
6        2.538448500     -0.429694000     -0.034704500
6        3.340486000      0.646799500     -0.018799000
6        4.831838000      0.594090000     -0.020168000
1        5.201416000     -0.445305500     -0.036390500
1        5.252503000      1.121199500     -0.897647000
1        5.251709000      1.092690000      0.874198000
1        2.896053000      1.651206500     -0.001984500
1        3.012779000     -1.420457000     -0.054458000
1        0.754372500      1.720234500      0.077841000
8       -2.015078000      1.575813000      0.224570000
6       -3.271186000      0.928180000     -0.358591000
1       -3.288731500      0.951330000     -1.704069500
1       -4.384492000      1.474657500      0.110320500
8       -3.047490500     -0.468172000      0.188893000
1       -1.470238500     -2.791232000     -0.013096500
1        1.028875000     -2.606434000     -0.087525000
*
