C N O H                                 
   1.00000000000000     
    40.0000000000000000    0.0000000000000000    0.0000000000000000
     0.0000000000000000   40.0000000000000000    0.0000000000000000
     0.0000000000000000    0.0000000000000000   40.0000000000000000
   C    N    O    H 
     7     1     1     7
Selective dynamics
Direct
  0.5158365800937438  0.4686356499956928  0.5000000000000000   T   T   T
  0.5500913143751198  0.4746261844864750  0.5000000000000000   T   T   T
  0.5620728088429819  0.5072906307477774  0.5000000000000000   T   T   T
  0.5395560785248485  0.5339753822169244  0.5000000000000000   T   T   T
  0.5053927010333795  0.5281699288874137  0.5000000000000000   T   T   T
  0.4930887851887459  0.4952862668724488  0.5000000000000000   T   T   T
  0.4574518074220462  0.4876585884190778  0.5000000000000000   T   T   T
  0.4353698700157999  0.5108892338775939  0.5000000000000000   T   T   T
  0.4029608707492735  0.4975359388623301  0.5000009999999975   T   T   T
  0.3887624188591251  0.5171395988488325  0.5000009999999975   T   T   T
  0.4498702297017895  0.4614435786828462  0.5000000000000000   T   T   T
  0.4880259895886038  0.5489588480777206  0.5000000000000000   T   T   T
  0.5488364798938296  0.5594440107583214  0.5000000000000000   T   T   T
  0.5887651758736073  0.5120219433753783  0.4999990000000025   T   T   T
  0.5674067187524933  0.4537738185078713  0.4999990000000025   T   T   T
  0.5065131710846024  0.4431503973832814  0.5000000000000000   T   T   T
 
  0.00000000E+00  0.00000000E+00  0.00000000E+00
  0.00000000E+00  0.00000000E+00  0.00000000E+00
  0.00000000E+00  0.00000000E+00  0.00000000E+00
  0.00000000E+00  0.00000000E+00  0.00000000E+00
  0.00000000E+00  0.00000000E+00  0.00000000E+00
  0.00000000E+00  0.00000000E+00  0.00000000E+00
  0.00000000E+00  0.00000000E+00  0.00000000E+00
  0.00000000E+00  0.00000000E+00  0.00000000E+00
  0.00000000E+00  0.00000000E+00  0.00000000E+00
  0.00000000E+00  0.00000000E+00  0.00000000E+00
  0.00000000E+00  0.00000000E+00  0.00000000E+00
  0.00000000E+00  0.00000000E+00  0.00000000E+00
  0.00000000E+00  0.00000000E+00  0.00000000E+00
  0.00000000E+00  0.00000000E+00  0.00000000E+00
  0.00000000E+00  0.00000000E+00  0.00000000E+00
  0.00000000E+00  0.00000000E+00  0.00000000E+00
