C N H                                   
   1.00000000000000     
    40.0000000000000000    0.0000000000000000    0.0000000000000000
     0.0000000000000000   40.0000000000000000    0.0000000000000000
     0.0000000000000000    0.0000000000000000   40.0000000000000000
   C    N    H 
     6     1     7
Selective dynamics
Direct
  0.4950128845762147  0.4689943241845214  0.4999602383916393   T   T   T
  0.5291919871556642  0.4693664922486273  0.5009771162906954   T   T   T
  0.5465852161818504  0.4999990000000025  0.5014130969270677   T   T   T
  0.5291919871556642  0.5306325077513682  0.5009771162906954   T   T   T
  0.4950138845762121  0.5310056758154786  0.4999602383916393   T   T   T
  0.4772773671586544  0.5000000000000000  0.4993313984665524   T   T   T
  0.4440995791660070  0.5000009999999975  0.4981367420292072   T   T   T
  0.4309314685838693  0.5215657136700999  0.4976154214915762   T   T   T
  0.4309304685838719  0.4784362863299021  0.4976154214915762   T   T   T
  0.4810851311289918  0.5542159432907011  0.4995837761802507   T   T   T
  0.5429850665223573  0.5538904445681893  0.5014045875196365   T   T   T
  0.5736267615592814  0.4999990000000025  0.5020374828295595   T   T   T
  0.5429840665223599  0.4461085554317991  0.5014045875196365   T   T   T
  0.4810831311289968  0.4457840567092989  0.4995837761802507   T   T   T
 
  0.00000000E+00  0.00000000E+00  0.00000000E+00
  0.00000000E+00  0.00000000E+00  0.00000000E+00
  0.00000000E+00  0.00000000E+00  0.00000000E+00
  0.00000000E+00  0.00000000E+00  0.00000000E+00
  0.00000000E+00  0.00000000E+00  0.00000000E+00
  0.00000000E+00  0.00000000E+00  0.00000000E+00
  0.00000000E+00  0.00000000E+00  0.00000000E+00
  0.00000000E+00  0.00000000E+00  0.00000000E+00
  0.00000000E+00  0.00000000E+00  0.00000000E+00
  0.00000000E+00  0.00000000E+00  0.00000000E+00
  0.00000000E+00  0.00000000E+00  0.00000000E+00
  0.00000000E+00  0.00000000E+00  0.00000000E+00
  0.00000000E+00  0.00000000E+00  0.00000000E+00
  0.00000000E+00  0.00000000E+00  0.00000000E+00
