C O H                                   
   1.00000000000000     
    40.0000000000000000    0.0000000000000000    0.0000000000000000
     0.0000000000000000   40.0000000000000000    0.0000000000000000
     0.0000000000000000    0.0000000000000000   40.0000000000000000
   C    O    H 
    10     1    12
Selective dynamics
Direct
  0.4728291786883605  0.4910836080143142  0.4995538234521326   T   T   T
  0.4409922956615420  0.5052057294071423  0.5009243434283823   T   T   T
  0.4373548809794465  0.5398074876680676  0.5010490550173594   T   T   T
  0.4653400734284086  0.5603445382957888  0.4996309919684025   T   T   T
  0.4969507573377454  0.5460776257236375  0.4980648737743201   T   T   T
  0.5017096051381192  0.5114385075276957  0.4981768323974695   T   T   T
  0.5347310068934986  0.4958432803153116  0.4965646092398794   T   T   T
  0.5640832854896095  0.5106654918817418  0.5028527966657255   T   T   T
  0.5970960608352713  0.4935172644749770  0.5005352107602792   T   T   T
  0.4501351591998193  0.4357410662004524  0.5005040531742481   T   T   T
  0.4783905423813639  0.4574074535134269  0.4997440431415551   T   T   T
  0.5943423818673047  0.4673703871089517  0.4932460743971065   T   T   T
  0.6133887436769740  0.5058361779851588  0.4822997034386585   T   T   T
  0.6103919668213279  0.4944424553369972  0.5244498773552118   T   T   T
  0.5647548993693019  0.5367653955327510  0.5105198239417091   T   T   T
  0.5349004411923375  0.4694991535934057  0.4899933306656801   T   T   T
  0.5186857485880321  0.5621947998589365  0.4962749882450012   T   T   T
  0.4625878588644210  0.5872983411457593  0.4994075894345424   T   T   T
  0.4124894011721996  0.5505506600315664  0.5021203592207120   T   T   T
  0.4190175923177749  0.4894830331299297  0.5020142577419778   T   T   T
  0.4340864418368484  0.4395922018006299  0.4787010330746045   T   T   T
  0.4355172690735572  0.4393248735421471  0.5233352343388090   T   T   T
  0.4602224091866916  0.4105114679112293  0.5000360951262499   T   T   T
 
  0.00000000E+00  0.00000000E+00  0.00000000E+00
  0.00000000E+00  0.00000000E+00  0.00000000E+00
  0.00000000E+00  0.00000000E+00  0.00000000E+00
  0.00000000E+00  0.00000000E+00  0.00000000E+00
  0.00000000E+00  0.00000000E+00  0.00000000E+00
  0.00000000E+00  0.00000000E+00  0.00000000E+00
  0.00000000E+00  0.00000000E+00  0.00000000E+00
  0.00000000E+00  0.00000000E+00  0.00000000E+00
  0.00000000E+00  0.00000000E+00  0.00000000E+00
  0.00000000E+00  0.00000000E+00  0.00000000E+00
  0.00000000E+00  0.00000000E+00  0.00000000E+00
  0.00000000E+00  0.00000000E+00  0.00000000E+00
  0.00000000E+00  0.00000000E+00  0.00000000E+00
  0.00000000E+00  0.00000000E+00  0.00000000E+00
  0.00000000E+00  0.00000000E+00  0.00000000E+00
  0.00000000E+00  0.00000000E+00  0.00000000E+00
  0.00000000E+00  0.00000000E+00  0.00000000E+00
  0.00000000E+00  0.00000000E+00  0.00000000E+00
  0.00000000E+00  0.00000000E+00  0.00000000E+00
  0.00000000E+00  0.00000000E+00  0.00000000E+00
  0.00000000E+00  0.00000000E+00  0.00000000E+00
  0.00000000E+00  0.00000000E+00  0.00000000E+00
  0.00000000E+00  0.00000000E+00  0.00000000E+00
