C H                                     
   1.00000000000000     
    40.0000000000000000    0.0000000000000000    0.0000000000000000
     0.0000000000000000   40.0000000000000000    0.0000000000000000
     0.0000000000000000    0.0000000000000000   40.0000000000000000
   C    H 
    14    12
Selective dynamics
Direct
  0.5606051670273402  0.4776796624776336  0.5150607144718560   T   T   T
  0.5315357197480163  0.4903492736741774  0.4991320736220256   T   T   T
  0.5335633397095347  0.5211458503954203  0.4815154656936876   T   T   T
  0.5635260980121636  0.5385796868489019  0.4800352481920359   T   T   T
  0.5918820494167468  0.5259811142634453  0.4963797665047212   T   T   T
  0.5902470284982784  0.4956173167691962  0.5140277914780601   T   T   T
  0.5000000000000000  0.4721075065317119  0.5000000000000000   T   T   T
  0.5000000000000000  0.4374143634779438  0.4999990000000025   T   T   T
  0.4684642802519908  0.4903492736741774  0.5008679263779743   T   T   T
  0.4393948329726596  0.4776806624776382  0.4849392855281440   T   T   T
  0.4097529715017215  0.4956183167691937  0.4859722085219398   T   T   T
  0.4081179505832532  0.5259821142634428  0.5036202334952786   T   T   T
  0.4364739019878364  0.5385796868489019  0.5199657518079758   T   T   T
  0.4664366602904654  0.5211458503954203  0.5184855343063099   T   T   T
  0.6122839503488662  0.4862575172548293  0.5270322471687130   T   T   T
  0.6154133961294992  0.5397041007295866  0.4952109882151933   T   T   T
  0.5650708375341499  0.5618343407378361  0.4659256104499922   T   T   T
  0.5117127088267108  0.5303326742779630  0.4680819286029751   T   T   T
  0.4767223267421260  0.4232952779813134  0.4993460015639428   T   T   T
  0.5232766732578764  0.4232942779813089  0.5006519984360622   T   T   T
  0.4882872911732893  0.5303316742779656  0.5319190713970224   T   T   T
  0.4349291624658501  0.5618333407378386  0.5340763895500028   T   T   T
  0.3845866038705009  0.5397051007295912  0.5047900117848042   T   T   T
  0.3877160496511338  0.4862585172548268  0.4729667528312895   T   T   T
  0.4407076296711646  0.4544607495848798  0.4707540006637381   T   T   T
  0.5592923703288354  0.4544597495848823  0.5292439993362599   T   T   T
 
  0.00000000E+00  0.00000000E+00  0.00000000E+00
  0.00000000E+00  0.00000000E+00  0.00000000E+00
  0.00000000E+00  0.00000000E+00  0.00000000E+00
  0.00000000E+00  0.00000000E+00  0.00000000E+00
  0.00000000E+00  0.00000000E+00  0.00000000E+00
  0.00000000E+00  0.00000000E+00  0.00000000E+00
  0.00000000E+00  0.00000000E+00  0.00000000E+00
  0.00000000E+00  0.00000000E+00  0.00000000E+00
  0.00000000E+00  0.00000000E+00  0.00000000E+00
  0.00000000E+00  0.00000000E+00  0.00000000E+00
  0.00000000E+00  0.00000000E+00  0.00000000E+00
  0.00000000E+00  0.00000000E+00  0.00000000E+00
  0.00000000E+00  0.00000000E+00  0.00000000E+00
  0.00000000E+00  0.00000000E+00  0.00000000E+00
  0.00000000E+00  0.00000000E+00  0.00000000E+00
  0.00000000E+00  0.00000000E+00  0.00000000E+00
  0.00000000E+00  0.00000000E+00  0.00000000E+00
  0.00000000E+00  0.00000000E+00  0.00000000E+00
  0.00000000E+00  0.00000000E+00  0.00000000E+00
  0.00000000E+00  0.00000000E+00  0.00000000E+00
  0.00000000E+00  0.00000000E+00  0.00000000E+00
  0.00000000E+00  0.00000000E+00  0.00000000E+00
  0.00000000E+00  0.00000000E+00  0.00000000E+00
  0.00000000E+00  0.00000000E+00  0.00000000E+00
  0.00000000E+00  0.00000000E+00  0.00000000E+00
  0.00000000E+00  0.00000000E+00  0.00000000E+00
