C O H                                   
   1.00000000000000     
    40.0000000000000000    0.0000000000000000    0.0000000000000000
     0.0000000000000000   40.0000000000000000    0.0000000000000000
     0.0000000000000000    0.0000000000000000   40.0000000000000000
   C    O    H 
    13     1    10
Selective dynamics
Direct
  0.4379477440600539  0.5309807181153943  0.5036813629177317   T   T   T
  0.4068634883076214  0.5155172903892833  0.5009404868957432   T   T   T
  0.4681439202643602  0.5136968524731103  0.4961377558969247   T   T   T
  0.4647737305643460  0.4802705710951258  0.4844207381005745   T   T   T
  0.4336182592934108  0.4650511016172487  0.4812866185131526   T   T   T
  0.4041936375096711  0.4823062246583234  0.4898597207150175   T   T   T
  0.5001290883367346  0.5317031736629048  0.4982587475079825   T   T   T
  0.5319756573253471  0.5137564688424163  0.5023356969431347   T   T   T
  0.5623202835420571  0.5299068970979235  0.4930781624150598   T   T   T
  0.5932752806954369  0.5145889641458652  0.4975229834340098   T   T   T
  0.5956547163484061  0.4827217653881206  0.5120861780669372   T   T   T
  0.5660825430209826  0.4666949774511622  0.5223650457832179   T   T   T
  0.5350581950919207  0.4817378615293748  0.5175301855485088   T   T   T
  0.5002735036738954  0.5640210843386342  0.4965024081720770   T   T   T
  0.4321254052546308  0.4395138749332759  0.4716800201406173   T   T   T
  0.3798322983955558  0.4702472520349090  0.4876354793054887   T   T   T
  0.4397792128369389  0.5568895252270778  0.5120126355807244   T   T   T
  0.3842975873468930  0.5294607948420165  0.5075411506842329   T   T   T
  0.4869896974441090  0.4664903405828085  0.4766788559046162   T   T   T
  0.5127238707505839  0.4690159770309066  0.5266235130694383   T   T   T
  0.6199069073908561  0.4707646273689718  0.5156263497121003   T   T   T
  0.5673600611528897  0.4423127281792887  0.5346327369149435   T   T   T
  0.5607107301522873  0.5548007485966835  0.4820427613801144   T   T   T
  0.6159661812409922  0.5275521803991552  0.4895204063976664   T   T   T
 
  0.00000000E+00  0.00000000E+00  0.00000000E+00
  0.00000000E+00  0.00000000E+00  0.00000000E+00
  0.00000000E+00  0.00000000E+00  0.00000000E+00
  0.00000000E+00  0.00000000E+00  0.00000000E+00
  0.00000000E+00  0.00000000E+00  0.00000000E+00
  0.00000000E+00  0.00000000E+00  0.00000000E+00
  0.00000000E+00  0.00000000E+00  0.00000000E+00
  0.00000000E+00  0.00000000E+00  0.00000000E+00
  0.00000000E+00  0.00000000E+00  0.00000000E+00
  0.00000000E+00  0.00000000E+00  0.00000000E+00
  0.00000000E+00  0.00000000E+00  0.00000000E+00
  0.00000000E+00  0.00000000E+00  0.00000000E+00
  0.00000000E+00  0.00000000E+00  0.00000000E+00
  0.00000000E+00  0.00000000E+00  0.00000000E+00
  0.00000000E+00  0.00000000E+00  0.00000000E+00
  0.00000000E+00  0.00000000E+00  0.00000000E+00
  0.00000000E+00  0.00000000E+00  0.00000000E+00
  0.00000000E+00  0.00000000E+00  0.00000000E+00
  0.00000000E+00  0.00000000E+00  0.00000000E+00
  0.00000000E+00  0.00000000E+00  0.00000000E+00
  0.00000000E+00  0.00000000E+00  0.00000000E+00
  0.00000000E+00  0.00000000E+00  0.00000000E+00
  0.00000000E+00  0.00000000E+00  0.00000000E+00
  0.00000000E+00  0.00000000E+00  0.00000000E+00
