C H                                     
   1.00000000000000     
    40.0000000000000000    0.0000000000000000    0.0000000000000000
     0.0000000000000000   40.0000000000000000    0.0000000000000000
     0.0000000000000000    0.0000000000000000   40.0000000000000000
   C    H 
    10    12
Selective dynamics
Direct
  0.4950718227884263  0.4745368919998970  0.5000982531866990   T   T   T
  0.4611493639245274  0.4705373497059939  0.5001852578343299   T   T   T
  0.4394445723100656  0.4985581654942900  0.5002785544096622   T   T   T
  0.4533909197515691  0.5310003473571538  0.5002282340192279   T   T   T
  0.4873339304799242  0.5353181211495981  0.5000987514892841   T   T   T
  0.5093050774271065  0.5072665589846431  0.5000567685415206   T   T   T
  0.5440792536782814  0.5135212710415158  0.5000096178787332   T   T   T
  0.5690777803387052  0.4898280380632455  0.5000180529258108   T   T   T
  0.6047912694061224  0.4981456012561077  0.4999614092478339   T   T   T
  0.4027388874268052  0.4935911482102734  0.5000054092553248   T   T   T
  0.6170041879674217  0.4866788182153854  0.5216699697242286   T   T   T
  0.6169437887909262  0.4866050503195265  0.4782580395773172   T   T   T
  0.6094539012105529  0.5249411023642901  0.4999064942394881   T   T   T
  0.5626136900367338  0.4634759624202467  0.5000626074393780   T   T   T
  0.5516413216400474  0.5396146602065898  0.4999654934661531   T   T   T
  0.4980606192471381  0.5601890697197828  0.5000928193248236   T   T   T
  0.4368856084388743  0.5524642572799903  0.5003400173244459   T   T   T
  0.3892000449605008  0.5166408412951249  0.5049920321452288   T   T   T
  0.3949835935685260  0.4842465641113509  0.4754255412237115   T   T   T
  0.3953448777653732  0.4744382586210711  0.5180144920906313   T   T   T
  0.4504070836468559  0.4456672692556579  0.5002463076621761   T   T   T
  0.5110784051955092  0.4527356529282919  0.5000868769939673   T   T   T
 
  0.00000000E+00  0.00000000E+00  0.00000000E+00
  0.00000000E+00  0.00000000E+00  0.00000000E+00
  0.00000000E+00  0.00000000E+00  0.00000000E+00
  0.00000000E+00  0.00000000E+00  0.00000000E+00
  0.00000000E+00  0.00000000E+00  0.00000000E+00
  0.00000000E+00  0.00000000E+00  0.00000000E+00
  0.00000000E+00  0.00000000E+00  0.00000000E+00
  0.00000000E+00  0.00000000E+00  0.00000000E+00
  0.00000000E+00  0.00000000E+00  0.00000000E+00
  0.00000000E+00  0.00000000E+00  0.00000000E+00
  0.00000000E+00  0.00000000E+00  0.00000000E+00
  0.00000000E+00  0.00000000E+00  0.00000000E+00
  0.00000000E+00  0.00000000E+00  0.00000000E+00
  0.00000000E+00  0.00000000E+00  0.00000000E+00
  0.00000000E+00  0.00000000E+00  0.00000000E+00
  0.00000000E+00  0.00000000E+00  0.00000000E+00
  0.00000000E+00  0.00000000E+00  0.00000000E+00
  0.00000000E+00  0.00000000E+00  0.00000000E+00
  0.00000000E+00  0.00000000E+00  0.00000000E+00
  0.00000000E+00  0.00000000E+00  0.00000000E+00
  0.00000000E+00  0.00000000E+00  0.00000000E+00
  0.00000000E+00  0.00000000E+00  0.00000000E+00
