C N O H                                 
   1.00000000000000     
    40.0000000000000000    0.0000000000000000    0.0000000000000000
     0.0000000000000000   40.0000000000000000    0.0000000000000000
     0.0000000000000000    0.0000000000000000   40.0000000000000000
   C    N    O    H 
     9     1     2     7
Selective dynamics
Direct
  0.5168549173526152  0.4642108903982338  0.4999990393464498   T   T   T
  0.5509926125671588  0.4666625209617746  0.4999973350704608   T   T   T
  0.5669907194585503  0.4986533754885599  0.4999950617310283   T   T   T
  0.5462525267446596  0.5277739642219480  0.4999938957485476   T   T   T
  0.5121061940396754  0.5250463581026985  0.4999971589305892   T   T   T
  0.4959460471663653  0.4931732729756256  0.4999980102676999   T   T   T
  0.4603780016235955  0.4891191589604584  0.5000032149075968   T   T   T
  0.4074968306629514  0.5165031340654853  0.5000071200454954   T   T   T
  0.6017487052379130  0.5013601435778365  0.4999963176410265   T   T   T
  0.6310616867547589  0.5036043681949953  0.4999939017835928   T   T   T
  0.4448722607156114  0.4621132623694642  0.5000044123815996   T   T   T
  0.4432445119302857  0.5191647245417719  0.5000048355545395   T   T   T
  0.3986822119663139  0.5033503280205908  0.4777854709988700   T   T   T
  0.3983032356882366  0.5421052248997177  0.5000181712199059   T   T   T
  0.3986846896062725  0.5033315209137140  0.5222200894386911   T   T   T
  0.4970413108993968  0.5475573569929163  0.4999939314168725   T   T   T
  0.5579299194351909  0.5522530875049169  0.4999911860562271   T   T   T
  0.5662881237751103  0.4442571451581844  0.4999987204690818   T   T   T
  0.5051254943753455  0.4397611626510821  0.5000021269917687   T   T   T
 
  0.00000000E+00  0.00000000E+00  0.00000000E+00
  0.00000000E+00  0.00000000E+00  0.00000000E+00
  0.00000000E+00  0.00000000E+00  0.00000000E+00
  0.00000000E+00  0.00000000E+00  0.00000000E+00
  0.00000000E+00  0.00000000E+00  0.00000000E+00
  0.00000000E+00  0.00000000E+00  0.00000000E+00
  0.00000000E+00  0.00000000E+00  0.00000000E+00
  0.00000000E+00  0.00000000E+00  0.00000000E+00
  0.00000000E+00  0.00000000E+00  0.00000000E+00
  0.00000000E+00  0.00000000E+00  0.00000000E+00
  0.00000000E+00  0.00000000E+00  0.00000000E+00
  0.00000000E+00  0.00000000E+00  0.00000000E+00
  0.00000000E+00  0.00000000E+00  0.00000000E+00
  0.00000000E+00  0.00000000E+00  0.00000000E+00
  0.00000000E+00  0.00000000E+00  0.00000000E+00
  0.00000000E+00  0.00000000E+00  0.00000000E+00
  0.00000000E+00  0.00000000E+00  0.00000000E+00
  0.00000000E+00  0.00000000E+00  0.00000000E+00
  0.00000000E+00  0.00000000E+00  0.00000000E+00
