C N O H                                 
   1.00000000000000     
    25.0000000000000000    0.0000000000000000    0.0000000000000000
     0.0000000000000000   25.0000000000000000    0.0000000000000000
     0.0000000000000000    0.0000000000000000   25.0000000000000000
   C    N    O    H 
     9     1     1    16
Selective dynamics
Direct
  0.5147962169554191  0.5258731857555976  0.4568101365912787   T   T   T
  0.5266044387180031  0.4686685424772134  0.4364011654777607   T   T   T
  0.5367613966007150  0.4296476121915950  0.4806001787842376   T   T   T
  0.5155367341382897  0.4359000974580697  0.5291993123813256   T   T   T
  0.4762955794540037  0.4791738320978070  0.5436178017447331   T   T   T
  0.5647854026102614  0.5501778555119196  0.4846464808884702   T   T   T
  0.4941534125632207  0.5625245843215654  0.4129181829930942   T   T   T
  0.4926740185965672  0.5093166759700389  0.5953389860903483   T   T   T
  0.4195067695486998  0.4557698453337475  0.5498921595006601   T   T   T
  0.4731824494089847  0.5213759228617932  0.5000037710058934   T   T   T
  0.4363815140995545  0.5526642495096794  0.5010412459952975   T   T   T
  0.5618764371140905  0.4724456309558875  0.4103923477886656   T   T   T
  0.4935997833876207  0.4548909935009096  0.4106485982809358   T   T   T
  0.5624376591351026  0.3953721317538123  0.4722060403520674   T   T   T
  0.5234734422593958  0.4076833135548241  0.5615540726242153   T   T   T
  0.5549869200288482  0.5885183831970635  0.5034789950845175   T   T   T
  0.5824989294851756  0.5229789668894114  0.5140138539394588   T   T   T
  0.5939017337704289  0.5570128845791057  0.4524882355871076   T   T   T
  0.4884089161041438  0.6035478591845282  0.4272564410627122   T   T   T
  0.4562700493416686  0.5476419383907439  0.3964393323651735   T   T   T
  0.5242325192546474  0.5629847263507164  0.3809886562877973   T   T   T
  0.4636248373710727  0.5409556879467887  0.6041894998244585   T   T   T
  0.5329258931843025  0.5263152008937805  0.5923093025156075   T   T   T
  0.4921754764287102  0.4796979036842763  0.6276978683482273   T   T   T
  0.3910893685915414  0.4866803230595993  0.5624523590741715   T   T   T
  0.4061350752917314  0.4372725138041780  0.5124367861543773   T   T   T
  0.4216830265577989  0.4249091387653409  0.5809771892574025   T   T   T
 
  0.00000000E+00  0.00000000E+00  0.00000000E+00
  0.00000000E+00  0.00000000E+00  0.00000000E+00
  0.00000000E+00  0.00000000E+00  0.00000000E+00
  0.00000000E+00  0.00000000E+00  0.00000000E+00
  0.00000000E+00  0.00000000E+00  0.00000000E+00
  0.00000000E+00  0.00000000E+00  0.00000000E+00
  0.00000000E+00  0.00000000E+00  0.00000000E+00
  0.00000000E+00  0.00000000E+00  0.00000000E+00
  0.00000000E+00  0.00000000E+00  0.00000000E+00
  0.00000000E+00  0.00000000E+00  0.00000000E+00
  0.00000000E+00  0.00000000E+00  0.00000000E+00
  0.00000000E+00  0.00000000E+00  0.00000000E+00
  0.00000000E+00  0.00000000E+00  0.00000000E+00
  0.00000000E+00  0.00000000E+00  0.00000000E+00
  0.00000000E+00  0.00000000E+00  0.00000000E+00
  0.00000000E+00  0.00000000E+00  0.00000000E+00
  0.00000000E+00  0.00000000E+00  0.00000000E+00
  0.00000000E+00  0.00000000E+00  0.00000000E+00
  0.00000000E+00  0.00000000E+00  0.00000000E+00
  0.00000000E+00  0.00000000E+00  0.00000000E+00
  0.00000000E+00  0.00000000E+00  0.00000000E+00
  0.00000000E+00  0.00000000E+00  0.00000000E+00
  0.00000000E+00  0.00000000E+00  0.00000000E+00
  0.00000000E+00  0.00000000E+00  0.00000000E+00
  0.00000000E+00  0.00000000E+00  0.00000000E+00
  0.00000000E+00  0.00000000E+00  0.00000000E+00
  0.00000000E+00  0.00000000E+00  0.00000000E+00
