C Cl O H                                
   1.00000000000000     
    40.0000000000000000    0.0000000000000000    0.0000000000000000
     0.0000000000000000   40.0000000000000000    0.0000000000000000
     0.0000000000000000    0.0000000000000000   40.0000000000000000
   C    Cl   O    H 
     7     1     1     5
Selective dynamics
Direct
  0.4971048565598437  0.4688969224356896  0.4999889638474926   T   T   T
  0.4630994025502559  0.4762292753739885  0.4999847974069027   T   T   T
  0.4523484058330496  0.5095552118136766  0.4999960597869730   T   T   T
  0.4757140026654056  0.5355864593401094  0.5000115181646692   T   T   T
  0.5098438126812113  0.5284843378872139  0.5000125720933823   T   T   T
  0.5207529026786801  0.4950702195417307  0.5000018623901639   T   T   T
  0.5562586541373520  0.4851784566921893  0.5000026921721314   T   T   T
  0.5861273733689387  0.5194293454269641  0.5000122755315957   T   T   T
  0.5671217243385769  0.4569825003330408  0.4999969275472651   T   T   T
  0.5279874610550834  0.5487830257965527  0.5000245850512073   T   T   T
  0.4673287235058936  0.5615203866569445  0.5000210011972399   T   T   T
  0.4256813632068059  0.5152469468359229  0.4999955011330002   T   T   T
  0.4448640942252879  0.4559640081185563  0.4999735507933352   T   T   T
  0.5057662231936106  0.4430739037474183  0.4999776928846345   T   T   T
 
  0.00000000E+00  0.00000000E+00  0.00000000E+00
  0.00000000E+00  0.00000000E+00  0.00000000E+00
  0.00000000E+00  0.00000000E+00  0.00000000E+00
  0.00000000E+00  0.00000000E+00  0.00000000E+00
  0.00000000E+00  0.00000000E+00  0.00000000E+00
  0.00000000E+00  0.00000000E+00  0.00000000E+00
  0.00000000E+00  0.00000000E+00  0.00000000E+00
  0.00000000E+00  0.00000000E+00  0.00000000E+00
  0.00000000E+00  0.00000000E+00  0.00000000E+00
  0.00000000E+00  0.00000000E+00  0.00000000E+00
  0.00000000E+00  0.00000000E+00  0.00000000E+00
  0.00000000E+00  0.00000000E+00  0.00000000E+00
  0.00000000E+00  0.00000000E+00  0.00000000E+00
  0.00000000E+00  0.00000000E+00  0.00000000E+00
