C N H                                   
   1.00000000000000     
    40.0000000000000000    0.0000000000000000    0.0000000000000000
     0.0000000000000000   40.0000000000000000    0.0000000000000000
     0.0000000000000000    0.0000000000000000   40.0000000000000000
   C    N    H 
     7     1     9
Selective dynamics
Direct
  0.4776703302447345  0.5309704903433143  0.5000618919585094   T   T   T
  0.5120196783285280  0.5306009938438692  0.4994298922766376   T   T   T
  0.5301498454893760  0.5000197650312543  0.4994488557019494   T   T   T
  0.5674033740850888  0.5000039814316821  0.4991079117984469   T   T   T
  0.5120331058462853  0.4694273740267079  0.4994272442276682   T   T   T
  0.4776846749565919  0.4690399619719940  0.5000617843949158   T   T   T
  0.4596112213494337  0.5000018970728561  0.5007315246507105   T   T   T
  0.4262882987901477  0.4999979360033535  0.5021300926237018   T   T   T
  0.5776537037952139  0.5226388392498933  0.5107237993898508   T   T   T
  0.5764699536567761  0.4994763120604233  0.4730242709378487   T   T   T
  0.5776123091373293  0.4777893765059957  0.5115573264822757   T   T   T
  0.4130957785869782  0.4782233656930757  0.5027880914570915   T   T   T
  0.4130871156681977  0.5217653045464701  0.5027932182000399   T   T   T
  0.4638422306672823  0.4455769993326371  0.5002459239830728   T   T   T
  0.5257889025394462  0.4458853482204006  0.4990997104957913   T   T   T
  0.5257684719790561  0.5541521616290268  0.4991099446556646   T   T   T
  0.4638210048795202  0.5544298930370530  0.5002585167658111   T   T   T
 
  0.00000000E+00  0.00000000E+00  0.00000000E+00
  0.00000000E+00  0.00000000E+00  0.00000000E+00
  0.00000000E+00  0.00000000E+00  0.00000000E+00
  0.00000000E+00  0.00000000E+00  0.00000000E+00
  0.00000000E+00  0.00000000E+00  0.00000000E+00
  0.00000000E+00  0.00000000E+00  0.00000000E+00
  0.00000000E+00  0.00000000E+00  0.00000000E+00
  0.00000000E+00  0.00000000E+00  0.00000000E+00
  0.00000000E+00  0.00000000E+00  0.00000000E+00
  0.00000000E+00  0.00000000E+00  0.00000000E+00
  0.00000000E+00  0.00000000E+00  0.00000000E+00
  0.00000000E+00  0.00000000E+00  0.00000000E+00
  0.00000000E+00  0.00000000E+00  0.00000000E+00
  0.00000000E+00  0.00000000E+00  0.00000000E+00
  0.00000000E+00  0.00000000E+00  0.00000000E+00
  0.00000000E+00  0.00000000E+00  0.00000000E+00
  0.00000000E+00  0.00000000E+00  0.00000000E+00
