C Cl O H                                
   1.00000000000000     
    40.0000000000000000    0.0000000000000000    0.0000000000000000
     0.0000000000000000   40.0000000000000000    0.0000000000000000
     0.0000000000000000    0.0000000000000000   40.0000000000000000
   C    Cl   O    H 
     7     1     1     5
Selective dynamics
Direct
  0.4967016776351492  0.4686688190211449  0.4999856667724682   T   T   T
  0.4628968153300965  0.4763230218522595  0.4999831549565778   T   T   T
  0.4516666382886225  0.5097518281580630  0.4999962689091087   T   T   T
  0.4758116327262722  0.5354975316917503  0.5000114099883795   T   T   T
  0.5097787189205022  0.5284923596940705  0.5000114467349555   T   T   T
  0.5216984185983770  0.4946670075629099  0.5000012013330626   T   T   T
  0.5556719425012795  0.4845406920408708  0.5000043713950408   T   T   T
  0.5869557605414645  0.5210860380927681  0.5000152345401649   T   T   T
  0.5686549264365069  0.4563201081154555  0.4999971347938567   T   T   T
  0.5278169685980079  0.5489037716343779  0.5000314494294983   T   T   T
  0.4676991140671164  0.5615972452978014  0.5000265318375029   T   T   T
  0.4250209266814984  0.5155593963804561  0.4999941513244184   T   T   T
  0.4446978838067852  0.4559230235581701  0.4999688612246542   T   T   T
  0.5049275758683101  0.4426701568999065  0.4999731167603046   T   T   T
 
  0.00000000E+00  0.00000000E+00  0.00000000E+00
  0.00000000E+00  0.00000000E+00  0.00000000E+00
  0.00000000E+00  0.00000000E+00  0.00000000E+00
  0.00000000E+00  0.00000000E+00  0.00000000E+00
  0.00000000E+00  0.00000000E+00  0.00000000E+00
  0.00000000E+00  0.00000000E+00  0.00000000E+00
  0.00000000E+00  0.00000000E+00  0.00000000E+00
  0.00000000E+00  0.00000000E+00  0.00000000E+00
  0.00000000E+00  0.00000000E+00  0.00000000E+00
  0.00000000E+00  0.00000000E+00  0.00000000E+00
  0.00000000E+00  0.00000000E+00  0.00000000E+00
  0.00000000E+00  0.00000000E+00  0.00000000E+00
  0.00000000E+00  0.00000000E+00  0.00000000E+00
  0.00000000E+00  0.00000000E+00  0.00000000E+00
