C N H                                   
   1.00000000000000     
    40.0000000000000000    0.0000000000000000    0.0000000000000000
     0.0000000000000000   40.0000000000000000    0.0000000000000000
     0.0000000000000000    0.0000000000000000   40.0000000000000000
   C    N    H 
     8     1    11
Selective dynamics
Direct
  0.4802865008047428  0.5307067802425061  0.5001226581712646   T   T   T
  0.4458758411313747  0.5303478399179101  0.5003606425659453   T   T   T
  0.4283600411659724  0.5000010018897535  0.5004802692874872   T   T   T
  0.4458741420933035  0.4696555495256317  0.5003537558851758   T   T   T
  0.4802849081858870  0.4692929307319273  0.5001207543712843   T   T   T
  0.4982796691956844  0.4999997042147511  0.4999942025877707   T   T   T
  0.5510063534689185  0.5312569408965401  0.4996764968035068   T   T   T
  0.5510049154176297  0.4687408144241560  0.4996841098132931   T   T   T
  0.5321667668357967  0.4999991930910822  0.4997682780687914   T   T   T
  0.5774544256323365  0.5254580454875599  0.4994691577160303   T   T   T
  0.5446294365333001  0.5458285848235201  0.4775388708412651   T   T   T
  0.5449737431996524  0.5457290690196970  0.5219820625414086   T   T   T
  0.5774530124715500  0.4745393436770547  0.4994932138890458   T   T   T
  0.5449588334651213  0.4542666317528808  0.5219835998707198   T   T   T
  0.5446422244744747  0.4541724405350973  0.4775400639204206   T   T   T
  0.4934001101379981  0.4456909996322529  0.5000023937326135   T   T   T
  0.4323235271725128  0.4462277619494625  0.5004006701875746   T   T   T
  0.4012983040278073  0.5000021483310682  0.5006043096448861   T   T   T
  0.4323261266626132  0.5537750570681436  0.5004120877425858   T   T   T
  0.4934021179233065  0.5543081627890148  0.5000134023589357   T   T   T
 
  0.00000000E+00  0.00000000E+00  0.00000000E+00
  0.00000000E+00  0.00000000E+00  0.00000000E+00
  0.00000000E+00  0.00000000E+00  0.00000000E+00
  0.00000000E+00  0.00000000E+00  0.00000000E+00
  0.00000000E+00  0.00000000E+00  0.00000000E+00
  0.00000000E+00  0.00000000E+00  0.00000000E+00
  0.00000000E+00  0.00000000E+00  0.00000000E+00
  0.00000000E+00  0.00000000E+00  0.00000000E+00
  0.00000000E+00  0.00000000E+00  0.00000000E+00
  0.00000000E+00  0.00000000E+00  0.00000000E+00
  0.00000000E+00  0.00000000E+00  0.00000000E+00
  0.00000000E+00  0.00000000E+00  0.00000000E+00
  0.00000000E+00  0.00000000E+00  0.00000000E+00
  0.00000000E+00  0.00000000E+00  0.00000000E+00
  0.00000000E+00  0.00000000E+00  0.00000000E+00
  0.00000000E+00  0.00000000E+00  0.00000000E+00
  0.00000000E+00  0.00000000E+00  0.00000000E+00
  0.00000000E+00  0.00000000E+00  0.00000000E+00
  0.00000000E+00  0.00000000E+00  0.00000000E+00
  0.00000000E+00  0.00000000E+00  0.00000000E+00
