C O H                                   
   1.00000000000000     
    40.0000000000000000    0.0000000000000000    0.0000000000000000
     0.0000000000000000   40.0000000000000000    0.0000000000000000
     0.0000000000000000    0.0000000000000000   40.0000000000000000
   C    O    H 
    12     1    10
Selective dynamics
Direct
  0.5334709169585430  0.4843611734485124  0.5170664881431302   T   T   T
  0.5648215639051696  0.4696274102832534  0.5174549342797238   T   T   T
  0.5920576018263920  0.4856168830092815  0.5021058157907378   T   T   T
  0.5881293096688653  0.5171222707854889  0.4868599290339925   T   T   T
  0.5571701318782446  0.5325862827214222  0.4865753761916737   T   T   T
  0.5298586882676041  0.5155864153156243  0.5009386182775994   T   T   T
  0.4701410395848968  0.5155956321415203  0.4990554100323017   T   T   T
  0.4428332042716066  0.5325997965534004  0.5134252547924006   T   T   T
  0.4118734178922488  0.5171407309672537  0.5131463100753016   T   T   T
  0.4079406537570973  0.4856386379872445  0.4978995673518240   T   T   T
  0.4351730501786452  0.4696394134533938  0.4825451971448867   T   T   T
  0.4665242744553216  0.4843669867145293  0.4829271669143116   T   T   T
  0.5000075159414554  0.5321401728140416  0.4999962731760040   T   T   T
  0.4875983362146466  0.4731065788003068  0.4699100969117174   T   T   T
  0.4316289746823982  0.4458880519898883  0.4697552712554429   T   T   T
  0.3834203551973645  0.4738354078171521  0.4974705863569170   T   T   T
  0.3905349736270906  0.5293457098462554  0.5248089554092993   T   T   T
  0.4468666149438316  0.5568510288084905  0.5250711221808231   T   T   T
  0.5531456990124941  0.5568384012939180  0.4749265677119981   T   T   T
  0.6094754459906098  0.5293234032770644  0.4751952077867359   T   T   T
  0.6165755195985526  0.4738130707752765  0.5025371783730529   T   T   T
  0.5683572291977647  0.4458749182628957  0.5302455320773513   T   T   T
  0.5123934829491696  0.4731026229337199  0.5300821407327772   T   T   T
 
  0.00000000E+00  0.00000000E+00  0.00000000E+00
  0.00000000E+00  0.00000000E+00  0.00000000E+00
  0.00000000E+00  0.00000000E+00  0.00000000E+00
  0.00000000E+00  0.00000000E+00  0.00000000E+00
  0.00000000E+00  0.00000000E+00  0.00000000E+00
  0.00000000E+00  0.00000000E+00  0.00000000E+00
  0.00000000E+00  0.00000000E+00  0.00000000E+00
  0.00000000E+00  0.00000000E+00  0.00000000E+00
  0.00000000E+00  0.00000000E+00  0.00000000E+00
  0.00000000E+00  0.00000000E+00  0.00000000E+00
  0.00000000E+00  0.00000000E+00  0.00000000E+00
  0.00000000E+00  0.00000000E+00  0.00000000E+00
  0.00000000E+00  0.00000000E+00  0.00000000E+00
  0.00000000E+00  0.00000000E+00  0.00000000E+00
  0.00000000E+00  0.00000000E+00  0.00000000E+00
  0.00000000E+00  0.00000000E+00  0.00000000E+00
  0.00000000E+00  0.00000000E+00  0.00000000E+00
  0.00000000E+00  0.00000000E+00  0.00000000E+00
  0.00000000E+00  0.00000000E+00  0.00000000E+00
  0.00000000E+00  0.00000000E+00  0.00000000E+00
  0.00000000E+00  0.00000000E+00  0.00000000E+00
  0.00000000E+00  0.00000000E+00  0.00000000E+00
  0.00000000E+00  0.00000000E+00  0.00000000E+00
