C N H                                   
   1.00000000000000     
    40.0000000000000000    0.0000000000000000    0.0000000000000000
     0.0000000000000000   40.0000000000000000    0.0000000000000000
     0.0000000000000000    0.0000000000000000   40.0000000000000000
   C    N    H 
     4     1     9
Selective dynamics
Direct
  0.5146797079018555  0.4710621720066115  0.4950972685521435   T   T   T
  0.5146838246277596  0.5289449482824722  0.4951318580063102   T   T   T
  0.4776738670607088  0.5194154589565727  0.5016883393988465   T   T   T
  0.4776864079870222  0.4805755886382528  0.5017361196217678   T   T   T
  0.5351869433345229  0.4999958241408180  0.5052784338655343   T   T   T
  0.5368601446631587  0.4999780993623588  0.5308263490390885   T   T   T
  0.4694866907346054  0.4708706577066124  0.5260986856924958   T   T   T
  0.4608886015618197  0.4700630919853666  0.4827031788293255   T   T   T
  0.4693751578135164  0.5291823431565845  0.5259940444821112   T   T   T
  0.4609364235612148  0.5298627414124013  0.4825668497794382   T   T   T
  0.5185985874290893  0.5331074438941314  0.4681587680649031   T   T   T
  0.5226854116739901  0.5516384653127631  0.5083563979512746   T   T   T
  0.5185534468840842  0.4669649584828690  0.4681061403814866   T   T   T
  0.5227057847666359  0.4483412066621923  0.5082565663352767   T   T   T
 
  0.00000000E+00  0.00000000E+00  0.00000000E+00
  0.00000000E+00  0.00000000E+00  0.00000000E+00
  0.00000000E+00  0.00000000E+00  0.00000000E+00
  0.00000000E+00  0.00000000E+00  0.00000000E+00
  0.00000000E+00  0.00000000E+00  0.00000000E+00
  0.00000000E+00  0.00000000E+00  0.00000000E+00
  0.00000000E+00  0.00000000E+00  0.00000000E+00
  0.00000000E+00  0.00000000E+00  0.00000000E+00
  0.00000000E+00  0.00000000E+00  0.00000000E+00
  0.00000000E+00  0.00000000E+00  0.00000000E+00
  0.00000000E+00  0.00000000E+00  0.00000000E+00
  0.00000000E+00  0.00000000E+00  0.00000000E+00
  0.00000000E+00  0.00000000E+00  0.00000000E+00
  0.00000000E+00  0.00000000E+00  0.00000000E+00
