C F N O H                               
   1.00000000000000     
    40.0000000000000000    0.0000000000000000    0.0000000000000000
     0.0000000000000000   40.0000000000000000    0.0000000000000000
     0.0000000000000000    0.0000000000000000   40.0000000000000000
   C    F    N    O    H 
     6     1     1     2     4
Selective dynamics
Direct
  0.4703107294915806  0.4695039346844666  0.4999981822817929   T   T   T
  0.5049386223211353  0.4695466652736408  0.4999977098814909   T   T   T
  0.5217413192193153  0.5000005201674185  0.4999996897865913   T   T   T
  0.5049387107563784  0.5304517617970594  0.5000025345681109   T   T   T
  0.4703112770906951  0.5304968558035852  0.5000016838128474   T   T   T
  0.4538388002740383  0.4999994339559919  0.4999996581802719   T   T   T
  0.4200487609213476  0.5000002032631627  0.4999994456175969   T   T   T
  0.5582416685717025  0.4999987314118215  0.4999997315452163   T   T   T
  0.5727335193443909  0.4727071300738760  0.4999991982737200   T   T   T
  0.5727342589145169  0.5272926796597966  0.5000005354678976   T   T   T
  0.4561305279434260  0.5535312064914991  0.5000036829962013   T   T   T
  0.5189513473392701  0.5535455886172644  0.5000047234533653   T   T   T
  0.5189504920053544  0.4464546159023086  0.4999964685713465   T   T   T
  0.4561299658068416  0.4464686728980993  0.4999957555635532   T   T   T
 
  0.00000000E+00  0.00000000E+00  0.00000000E+00
  0.00000000E+00  0.00000000E+00  0.00000000E+00
  0.00000000E+00  0.00000000E+00  0.00000000E+00
  0.00000000E+00  0.00000000E+00  0.00000000E+00
  0.00000000E+00  0.00000000E+00  0.00000000E+00
  0.00000000E+00  0.00000000E+00  0.00000000E+00
  0.00000000E+00  0.00000000E+00  0.00000000E+00
  0.00000000E+00  0.00000000E+00  0.00000000E+00
  0.00000000E+00  0.00000000E+00  0.00000000E+00
  0.00000000E+00  0.00000000E+00  0.00000000E+00
  0.00000000E+00  0.00000000E+00  0.00000000E+00
  0.00000000E+00  0.00000000E+00  0.00000000E+00
  0.00000000E+00  0.00000000E+00  0.00000000E+00
  0.00000000E+00  0.00000000E+00  0.00000000E+00
