C N H                                   
   1.00000000000000     
    40.0000000000000000    0.0000000000000000    0.0000000000000000
     0.0000000000000000   40.0000000000000000    0.0000000000000000
     0.0000000000000000    0.0000000000000000   40.0000000000000000
   C    N    H 
     7     1     9
Selective dynamics
Direct
  0.4776703302447374  0.5309704903433137  0.5000618919585119   T   T   T
  0.5120196783285271  0.5306009938438713  0.4994298922766366   T   T   T
  0.5301498454893760  0.5000197650312524  0.4994488557019492   T   T   T
  0.5674033740850892  0.5000039814316849  0.4991079117984461   T   T   T
  0.5120331058462831  0.4694273740267098  0.4994272442276671   T   T   T
  0.4776846749565885  0.4690399619719959  0.5000617843949167   T   T   T
  0.4596112213494315  0.5000018970728528  0.5007315246507118   T   T   T
  0.4262882987901501  0.4999979360033569  0.5021300926237000   T   T   T
  0.5776537037952151  0.5226388392498962  0.5107237993898521   T   T   T
  0.5764699536567796  0.4994763120604253  0.4730242709378512   T   T   T
  0.5776123091373265  0.4777893765059956  0.5115573264822788   T   T   T
  0.4130957785869816  0.4782233656930734  0.5027880914570925   T   T   T
  0.4130871156681942  0.5217653045464672  0.5027932182000390   T   T   T
  0.4638422306672802  0.4455769993326403  0.5002459239830699   T   T   T
  0.5257889025394492  0.4458853482203992  0.4990997104957886   T   T   T
  0.5257684719790529  0.5541521616290237  0.4991099446556612   T   T   T
  0.4638210048795236  0.5544298930370555  0.5002585167658122   T   T   T
 
  0.00000000E+00  0.00000000E+00  0.00000000E+00
  0.00000000E+00  0.00000000E+00  0.00000000E+00
  0.00000000E+00  0.00000000E+00  0.00000000E+00
  0.00000000E+00  0.00000000E+00  0.00000000E+00
  0.00000000E+00  0.00000000E+00  0.00000000E+00
  0.00000000E+00  0.00000000E+00  0.00000000E+00
  0.00000000E+00  0.00000000E+00  0.00000000E+00
  0.00000000E+00  0.00000000E+00  0.00000000E+00
  0.00000000E+00  0.00000000E+00  0.00000000E+00
  0.00000000E+00  0.00000000E+00  0.00000000E+00
  0.00000000E+00  0.00000000E+00  0.00000000E+00
  0.00000000E+00  0.00000000E+00  0.00000000E+00
  0.00000000E+00  0.00000000E+00  0.00000000E+00
  0.00000000E+00  0.00000000E+00  0.00000000E+00
  0.00000000E+00  0.00000000E+00  0.00000000E+00
  0.00000000E+00  0.00000000E+00  0.00000000E+00
  0.00000000E+00  0.00000000E+00  0.00000000E+00
