C H                                     
   1.00000000000000     
    40.0000000000000000    0.0000000000000000    0.0000000000000000
     0.0000000000000000   40.0000000000000000    0.0000000000000000
     0.0000000000000000    0.0000000000000000   40.0000000000000000
   C    H 
    10    12
Selective dynamics
Direct
  0.5270503885476452  0.4681651982696246  0.5000058674744672   T   T   T
  0.5359608790197600  0.5029690000954475  0.5000025232679965   T   T   T
  0.5099820985236820  0.5272447879074035  0.5000014605041035   T   T   T
  0.4765713723824345  0.5184292878676764  0.4999996013842521   T   T   T
  0.4680729229909736  0.4833709068108792  0.5000010737143948   T   T   T
  0.4939420299602718  0.4590431918500770  0.5000039265170561   T   T   T
  0.4325543151750524  0.4727457985050584  0.5000001018341456   T   T   T
  0.4497766486090283  0.5444929729684235  0.4999979824679869   T   T   T
  0.5698231632725408  0.5144010813451646  0.5000033498589900   T   T   T
  0.5976527901278842  0.4943788863034288  0.4999939423323280   T   T   T
  0.4870676356122776  0.4326583602834902  0.5000081922385567   T   T   T
  0.4298413155216244  0.4455111435941641  0.5000017375979001   T   T   T
  0.4194032853739788  0.4831794428253748  0.4781155731198887   T   T   T
  0.4193991693726346  0.4831828045855623  0.5218805826816491   T   T   T
  0.4335261937242515  0.5418804372656657  0.5220490556138885   T   T   T
  0.4335254459346357  0.5418758687185774  0.4779483271768988   T   T   T
  0.4605230822949826  0.5696840025603809  0.4999947088926492   T   T   T
  0.5169259636165005  0.5536207420512212  0.5000011094923485   T   T   T
  0.5962012617359228  0.4671864464443301  0.4999840720725142   T   T   T
  0.6224985410045768  0.5055225655128235  0.4999918008486601   T   T   T
  0.5733541576497165  0.5414840711744636  0.5000085648578918   T   T   T
  0.5463463395496354  0.4489740030607750  0.5000064460514404   T   T   T
 
  0.00000000E+00  0.00000000E+00  0.00000000E+00
  0.00000000E+00  0.00000000E+00  0.00000000E+00
  0.00000000E+00  0.00000000E+00  0.00000000E+00
  0.00000000E+00  0.00000000E+00  0.00000000E+00
  0.00000000E+00  0.00000000E+00  0.00000000E+00
  0.00000000E+00  0.00000000E+00  0.00000000E+00
  0.00000000E+00  0.00000000E+00  0.00000000E+00
  0.00000000E+00  0.00000000E+00  0.00000000E+00
  0.00000000E+00  0.00000000E+00  0.00000000E+00
  0.00000000E+00  0.00000000E+00  0.00000000E+00
  0.00000000E+00  0.00000000E+00  0.00000000E+00
  0.00000000E+00  0.00000000E+00  0.00000000E+00
  0.00000000E+00  0.00000000E+00  0.00000000E+00
  0.00000000E+00  0.00000000E+00  0.00000000E+00
  0.00000000E+00  0.00000000E+00  0.00000000E+00
  0.00000000E+00  0.00000000E+00  0.00000000E+00
  0.00000000E+00  0.00000000E+00  0.00000000E+00
  0.00000000E+00  0.00000000E+00  0.00000000E+00
  0.00000000E+00  0.00000000E+00  0.00000000E+00
  0.00000000E+00  0.00000000E+00  0.00000000E+00
  0.00000000E+00  0.00000000E+00  0.00000000E+00
  0.00000000E+00  0.00000000E+00  0.00000000E+00
