C N O H                                 
   1.00000000000000     
    40.0000000000000000    0.0000000000000000    0.0000000000000000
     0.0000000000000000   40.0000000000000000    0.0000000000000000
     0.0000000000000000    0.0000000000000000   40.0000000000000000
   C    N    O    H 
     9     1     2     7
Selective dynamics
Direct
  0.5166253630657778  0.4643453706872407  0.4999995704230997   T   T   T
  0.5512965232835896  0.4667656078092151  0.4999976736700731   T   T   T
  0.5663846513299049  0.4985779057572088  0.4999941348210513   T   T   T
  0.5466361271219924  0.5277141973470307  0.4999935202480259   T   T   T
  0.5119722922809302  0.5249530925512076  0.4999959428209380   T   T   T
  0.4967764553252891  0.4932948002660567  0.4999993504261937   T   T   T
  0.4596458221231856  0.4890933075582922  0.5000040213184036   T   T   T
  0.4070703739236237  0.5166121057059883  0.5000064449747654   T   T   T
  0.6019824372090170  0.5013083783513821  0.4999959466160959   T   T   T
  0.6311267999537407  0.5034977898274988  0.4999952086526633   T   T   T
  0.4454514653395378  0.4618587904914691  0.5000044932145187   T   T   T
  0.4433229315458362  0.5186484821725088  0.5000052062183258   T   T   T
  0.3983931878965947  0.5034496274338096  0.4775629897054188   T   T   T
  0.3983717098567041  0.5425251664957571  0.5000183101379534   T   T   T
  0.3983943306620006  0.5034289320624694  0.5224374690833713   T   T   T
  0.4966912766273026  0.5474663386832006  0.4999962976621433   T   T   T
  0.5585276211661210  0.5521943872915500  0.4999921989143843   T   T   T
  0.5667444163239921  0.4443516478371876  0.4999982621068781   T   T   T
  0.5045862149648670  0.4399150716709173  0.5000029589857178   T   T   T
 
  0.00000000E+00  0.00000000E+00  0.00000000E+00
  0.00000000E+00  0.00000000E+00  0.00000000E+00
  0.00000000E+00  0.00000000E+00  0.00000000E+00
  0.00000000E+00  0.00000000E+00  0.00000000E+00
  0.00000000E+00  0.00000000E+00  0.00000000E+00
  0.00000000E+00  0.00000000E+00  0.00000000E+00
  0.00000000E+00  0.00000000E+00  0.00000000E+00
  0.00000000E+00  0.00000000E+00  0.00000000E+00
  0.00000000E+00  0.00000000E+00  0.00000000E+00
  0.00000000E+00  0.00000000E+00  0.00000000E+00
  0.00000000E+00  0.00000000E+00  0.00000000E+00
  0.00000000E+00  0.00000000E+00  0.00000000E+00
  0.00000000E+00  0.00000000E+00  0.00000000E+00
  0.00000000E+00  0.00000000E+00  0.00000000E+00
  0.00000000E+00  0.00000000E+00  0.00000000E+00
  0.00000000E+00  0.00000000E+00  0.00000000E+00
  0.00000000E+00  0.00000000E+00  0.00000000E+00
  0.00000000E+00  0.00000000E+00  0.00000000E+00
  0.00000000E+00  0.00000000E+00  0.00000000E+00
