C H                                     
   1.00000000000000     
    40.0000000000000000    0.0000000000000000    0.0000000000000000
     0.0000000000000000   40.0000000000000000    0.0000000000000000
     0.0000000000000000    0.0000000000000000   40.0000000000000000
   C    H 
     9    12
Selective dynamics
Direct
  0.4730364149469331  0.4768683422866412  0.4999301566296560   T   T   T
  0.5051820645319620  0.4646472134680912  0.4999612007654765   T   T   T
  0.5131798600888615  0.4281756996929694  0.5000220153151840   T   T   T
  0.5320280121947940  0.4884961331699518  0.4999586471044848   T   T   T
  0.5267163640477930  0.5239245476209485  0.4998860055784272   T   T   T
  0.5557584924278332  0.5474946212617251  0.4999617706683026   T   T   T
  0.4940550687614901  0.5351216263039549  0.4998569594473573   T   T   T
  0.4667874478853692  0.5121522283377957  0.4998954544666331   T   T   T
  0.4319557970895559  0.5243145098196348  0.4999508402200156   T   T   T
  0.4905008578779717  0.4128405928986612  0.4991702596327715   T   T   T
  0.5275720083849494  0.4216113734439602  0.5225588136347080   T   T   T
  0.5291675348855724  0.4218290192294518  0.4785348520970343   T   T   T
  0.5797361300731405  0.5343541362047562  0.4984055029218138   T   T   T
  0.5538196971119683  0.5651117589244964  0.4789430084360475   T   T   T
  0.5555394661713532  0.5626668180261128  0.5229229664807434   T   T   T
  0.4180651252398353  0.5131313782316920  0.4788748777144750   T   T   T
  0.4300229352787961  0.5515821642326029  0.4990742576493604   T   T   T
  0.4189094611657812  0.5147932804807609  0.5223828378424145   T   T   T
  0.4885840719078470  0.5618248396512335  0.4998008271538319   T   T   T
  0.5576876473691470  0.4791620900616950  0.4999788774725313   T   T   T
  0.4516955425590320  0.4598976266528431  0.4999298687687246   T   T   T
 
  0.00000000E+00  0.00000000E+00  0.00000000E+00
  0.00000000E+00  0.00000000E+00  0.00000000E+00
  0.00000000E+00  0.00000000E+00  0.00000000E+00
  0.00000000E+00  0.00000000E+00  0.00000000E+00
  0.00000000E+00  0.00000000E+00  0.00000000E+00
  0.00000000E+00  0.00000000E+00  0.00000000E+00
  0.00000000E+00  0.00000000E+00  0.00000000E+00
  0.00000000E+00  0.00000000E+00  0.00000000E+00
  0.00000000E+00  0.00000000E+00  0.00000000E+00
  0.00000000E+00  0.00000000E+00  0.00000000E+00
  0.00000000E+00  0.00000000E+00  0.00000000E+00
  0.00000000E+00  0.00000000E+00  0.00000000E+00
  0.00000000E+00  0.00000000E+00  0.00000000E+00
  0.00000000E+00  0.00000000E+00  0.00000000E+00
  0.00000000E+00  0.00000000E+00  0.00000000E+00
  0.00000000E+00  0.00000000E+00  0.00000000E+00
  0.00000000E+00  0.00000000E+00  0.00000000E+00
  0.00000000E+00  0.00000000E+00  0.00000000E+00
  0.00000000E+00  0.00000000E+00  0.00000000E+00
  0.00000000E+00  0.00000000E+00  0.00000000E+00
  0.00000000E+00  0.00000000E+00  0.00000000E+00
