C N H                                   
   1.00000000000000     
    40.0000000000000000    0.0000000000000000    0.0000000000000000
     0.0000000000000000   40.0000000000000000    0.0000000000000000
     0.0000000000000000    0.0000000000000000   40.0000000000000000
   C    N    H 
    12     1    11
Selective dynamics
Direct
  0.4415682168613127  0.4689003202855686  0.5106328688729941   T   T   T
  0.4099101510575647  0.4824638180200854  0.5102487899138738   T   T   T
  0.4048924472197409  0.5148996670038641  0.4981818230696941   T   T   T
  0.4318599205972942  0.5337188936864743  0.4863180992464416   T   T   T
  0.4638288257114394  0.5207830036065101  0.4868849118541884   T   T   T
  0.4688898472480575  0.4882566593763938  0.4995110147018773   T   T   T
  0.5311101527519423  0.4882566593763938  0.5004879852981180   T   T   T
  0.5361711742885606  0.5207830036065101  0.5131140881458213   T   T   T
  0.5681400794027061  0.5337188936864743  0.5136819007535582   T   T   T
  0.5951075527802591  0.5148986670038667  0.5018181769303063   T   T   T
  0.5900898489424354  0.4824628180200808  0.4897522100861306   T   T   T
  0.5584317831386871  0.4688993202855711  0.4893681311270036   T   T   T
  0.5000000000000000  0.4735881781564693  0.5000000000000000   T   T   T
  0.5541538297576878  0.4438902728426318  0.4798625331784618   T   T   T
  0.6110439541631497  0.4679458925041047  0.4806918796126791   T   T   T
  0.6200844299171281  0.5253006387540963  0.5025274255018720   T   T   T
  0.5723432664923311  0.5583429056268379  0.5240804267820079   T   T   T
  0.5155033408640095  0.5345978877024525  0.5237528607366951   T   T   T
  0.5000000000000000  0.4482129030254889  0.5000000000000000   T   T   T
  0.4844966591359907  0.5345978877024525  0.4762461392633003   T   T   T
  0.4276567335076688  0.5583429056268379  0.4759195732179918   T   T   T
  0.3799155700828718  0.5253016387540937  0.4974735744981255   T   T   T
  0.3889560458368505  0.4679468925041093  0.5193091203873186   T   T   T
  0.4458461702423120  0.4438902728426318  0.5201374668215312   T   T   T
 
  0.00000000E+00  0.00000000E+00  0.00000000E+00
  0.00000000E+00  0.00000000E+00  0.00000000E+00
  0.00000000E+00  0.00000000E+00  0.00000000E+00
  0.00000000E+00  0.00000000E+00  0.00000000E+00
  0.00000000E+00  0.00000000E+00  0.00000000E+00
  0.00000000E+00  0.00000000E+00  0.00000000E+00
  0.00000000E+00  0.00000000E+00  0.00000000E+00
  0.00000000E+00  0.00000000E+00  0.00000000E+00
  0.00000000E+00  0.00000000E+00  0.00000000E+00
  0.00000000E+00  0.00000000E+00  0.00000000E+00
  0.00000000E+00  0.00000000E+00  0.00000000E+00
  0.00000000E+00  0.00000000E+00  0.00000000E+00
  0.00000000E+00  0.00000000E+00  0.00000000E+00
  0.00000000E+00  0.00000000E+00  0.00000000E+00
  0.00000000E+00  0.00000000E+00  0.00000000E+00
  0.00000000E+00  0.00000000E+00  0.00000000E+00
  0.00000000E+00  0.00000000E+00  0.00000000E+00
  0.00000000E+00  0.00000000E+00  0.00000000E+00
  0.00000000E+00  0.00000000E+00  0.00000000E+00
  0.00000000E+00  0.00000000E+00  0.00000000E+00
  0.00000000E+00  0.00000000E+00  0.00000000E+00
  0.00000000E+00  0.00000000E+00  0.00000000E+00
  0.00000000E+00  0.00000000E+00  0.00000000E+00
  0.00000000E+00  0.00000000E+00  0.00000000E+00
