C N H                                   
   1.00000000000000     
    40.0000000000000000    0.0000000000000000    0.0000000000000000
     0.0000000000000000   40.0000000000000000    0.0000000000000000
     0.0000000000000000    0.0000000000000000   40.0000000000000000
   C    N    H 
    12     1    11
Selective dynamics
Direct
  0.4412902466076503  0.4688305992388138  0.5108197456517658   T   T   T
  0.4094892910866434  0.4824713047776896  0.5103600697006954   T   T   T
  0.4044525927786182  0.5149740816209984  0.4980809620390332   T   T   T
  0.4315329168869511  0.5338166742649406  0.4861284382984721   T   T   T
  0.4636257236649115  0.5207778032291017  0.4867206284187944   T   T   T
  0.4687603029557650  0.4881481695091168  0.4995006579013719   T   T   T
  0.5312396970442350  0.4881481695091168  0.5004983420986235   T   T   T
  0.5363742763350885  0.5207778032291017  0.5132783715812081   T   T   T
  0.5684670831130489  0.5338166742649406  0.5138715617015279   T   T   T
  0.5955474072213818  0.5149730816210010  0.5019190379609668   T   T   T
  0.5905107089133566  0.4824703047776850  0.4896409302993092   T   T   T
  0.5587097533923497  0.4688295992388163  0.4891812543482317   T   T   T
  0.5000000000000000  0.4734286682589968  0.5000000000000000   T   T   T
  0.5544878272927107  0.4437221040954284  0.4794256324456754   T   T   T
  0.6116067849162476  0.4679069341627198  0.4804627204770142   T   T   T
  0.6206922922455291  0.5254257566126483  0.5027052019443374   T   T   T
  0.5726623241925139  0.5585933394646077  0.5243578555028350   T   T   T
  0.5156059922202729  0.5346692834844902  0.5240572490596875   T   T   T
  0.5000000000000000  0.4479002308198758  0.5000000000000000   T   T   T
  0.4843940077797271  0.5346692834844902  0.4759417509403079   T   T   T
  0.4273376758074861  0.5585933394646077  0.4756421444971650   T   T   T
  0.3793077077544709  0.5254267566126458  0.4972957980556600   T   T   T
  0.3883932150837524  0.4679079341627244  0.5195382795229833   T   T   T
  0.4455121727072893  0.4437221040954284  0.5205743675543175   T   T   T
 
  0.00000000E+00  0.00000000E+00  0.00000000E+00
  0.00000000E+00  0.00000000E+00  0.00000000E+00
  0.00000000E+00  0.00000000E+00  0.00000000E+00
  0.00000000E+00  0.00000000E+00  0.00000000E+00
  0.00000000E+00  0.00000000E+00  0.00000000E+00
  0.00000000E+00  0.00000000E+00  0.00000000E+00
  0.00000000E+00  0.00000000E+00  0.00000000E+00
  0.00000000E+00  0.00000000E+00  0.00000000E+00
  0.00000000E+00  0.00000000E+00  0.00000000E+00
  0.00000000E+00  0.00000000E+00  0.00000000E+00
  0.00000000E+00  0.00000000E+00  0.00000000E+00
  0.00000000E+00  0.00000000E+00  0.00000000E+00
  0.00000000E+00  0.00000000E+00  0.00000000E+00
  0.00000000E+00  0.00000000E+00  0.00000000E+00
  0.00000000E+00  0.00000000E+00  0.00000000E+00
  0.00000000E+00  0.00000000E+00  0.00000000E+00
  0.00000000E+00  0.00000000E+00  0.00000000E+00
  0.00000000E+00  0.00000000E+00  0.00000000E+00
  0.00000000E+00  0.00000000E+00  0.00000000E+00
  0.00000000E+00  0.00000000E+00  0.00000000E+00
  0.00000000E+00  0.00000000E+00  0.00000000E+00
  0.00000000E+00  0.00000000E+00  0.00000000E+00
  0.00000000E+00  0.00000000E+00  0.00000000E+00
  0.00000000E+00  0.00000000E+00  0.00000000E+00
