C N O H                                 
   1.00000000000000     
    25.0000000000000000    0.0000000000000000    0.0000000000000000
     0.0000000000000000   25.0000000000000000    0.0000000000000000
     0.0000000000000000    0.0000000000000000   25.0000000000000000
   C    N    O    H 
     9     2     2    15
Selective dynamics
Direct
  0.5021477791373217  0.4804008499027977  0.4616323186791502   T   T   T
  0.5043097760405554  0.4425476922009753  0.4997854641394764   T   T   T
  0.5017585066564496  0.4641276570765411  0.5555709674086167   T   T   T
  0.4975560030351930  0.5362735868869103  0.4855239273495034   T   T   T
  0.5042897678545306  0.4654364122788884  0.4037319544344158   T   T   T
  0.4445775146389342  0.5648738957791718  0.4726232832383345   T   T   T
  0.5460741922118523  0.5724815124086241  0.4743927475704028   T   T   T
  0.5529197569307627  0.4524622239847467  0.5877987615923956   T   T   T
  0.4518106067574645  0.4450897493425625  0.5861572934130372   T   T   T
  0.4976400515863475  0.5223936676617338  0.5438902049883318   T   T   T
  0.5016031058640246  0.5053656064221985  0.3672690591493730   T   T   T
  0.4944441177068256  0.5580045948609439  0.5805692703073564   T   T   T
  0.5084363200262199  0.4176482111396596  0.3897558003962018   T   T   T
  0.5076761719904749  0.3998666076721260  0.4916804085604723   T   T   T
  0.4435822392509100  0.5796927916930232  0.4313144057501223   T   T   T
  0.4103884997682432  0.5379575152444277  0.4785106736458511   T   T   T
  0.4402258859062553  0.5994638342630624  0.4993515654043034   T   T   T
  0.5441606154314782  0.6074372715193802  0.5009285616411576   T   T   T
  0.5836820974264085  0.5510533541858370  0.4817925515955924   T   T   T
  0.5464208693671025  0.5871005470283432  0.4329963921894445   T   T   T
  0.5557967093154822  0.4094744710767180  0.5963411080915486   T   T   T
  0.5887605360658830  0.4648426510361486  0.5656299262433702   T   T   T
  0.5515468440101933  0.4742669661671898  0.6259252103409524   T   T   T
  0.4152990401608669  0.4521458352972720  0.5627923559747129   T   T   T
  0.4549725606925239  0.4021311246366938  0.5947500541269577   T   T   T
  0.4487929959427209  0.4668091979247572  0.6242337651166423   T   T   T
  0.4981476577048674  0.5443952709072289  0.3773360899736328   T   T   T
  0.5029787785200893  0.4962549014020580  0.3277158786786442   T   T   T
 
  0.00000000E+00  0.00000000E+00  0.00000000E+00
  0.00000000E+00  0.00000000E+00  0.00000000E+00
  0.00000000E+00  0.00000000E+00  0.00000000E+00
  0.00000000E+00  0.00000000E+00  0.00000000E+00
  0.00000000E+00  0.00000000E+00  0.00000000E+00
  0.00000000E+00  0.00000000E+00  0.00000000E+00
  0.00000000E+00  0.00000000E+00  0.00000000E+00
  0.00000000E+00  0.00000000E+00  0.00000000E+00
  0.00000000E+00  0.00000000E+00  0.00000000E+00
  0.00000000E+00  0.00000000E+00  0.00000000E+00
  0.00000000E+00  0.00000000E+00  0.00000000E+00
  0.00000000E+00  0.00000000E+00  0.00000000E+00
  0.00000000E+00  0.00000000E+00  0.00000000E+00
  0.00000000E+00  0.00000000E+00  0.00000000E+00
  0.00000000E+00  0.00000000E+00  0.00000000E+00
  0.00000000E+00  0.00000000E+00  0.00000000E+00
  0.00000000E+00  0.00000000E+00  0.00000000E+00
  0.00000000E+00  0.00000000E+00  0.00000000E+00
  0.00000000E+00  0.00000000E+00  0.00000000E+00
  0.00000000E+00  0.00000000E+00  0.00000000E+00
  0.00000000E+00  0.00000000E+00  0.00000000E+00
  0.00000000E+00  0.00000000E+00  0.00000000E+00
  0.00000000E+00  0.00000000E+00  0.00000000E+00
  0.00000000E+00  0.00000000E+00  0.00000000E+00
  0.00000000E+00  0.00000000E+00  0.00000000E+00
  0.00000000E+00  0.00000000E+00  0.00000000E+00
  0.00000000E+00  0.00000000E+00  0.00000000E+00
  0.00000000E+00  0.00000000E+00  0.00000000E+00
