C N H                                   
   1.00000000000000     
    40.0000000000000000    0.0000000000000000    0.0000000000000000
     0.0000000000000000   40.0000000000000000    0.0000000000000000
     0.0000000000000000    0.0000000000000000   40.0000000000000000
   C    N    H 
     3     2     4
Selective dynamics
Direct
  0.5039937288560026  0.5254749093425701  0.5000009999999975   T   T   T
  0.5254596745666475  0.4959573234504120  0.5000000000000000   T   T   T
  0.5026976336859619  0.4685213403550037  0.5000009999999975   T   T   T
  0.4713875062186546  0.4787322979806490  0.4999990000000025   T   T   T
  0.4734106725348113  0.5141933314324163  0.4999990000000025   T   T   T
  0.4515989359010675  0.5274147781874490  0.4999990000000025   T   T   T
  0.5084258525249652  0.4419871518244634  0.5000009999999975   T   T   T
  0.5526133429140572  0.4958409677214632  0.5000000000000000   T   T   T
  0.5104116527978135  0.5518768997055759  0.5000009999999975   T   T   T
 
  0.00000000E+00  0.00000000E+00  0.00000000E+00
  0.00000000E+00  0.00000000E+00  0.00000000E+00
  0.00000000E+00  0.00000000E+00  0.00000000E+00
  0.00000000E+00  0.00000000E+00  0.00000000E+00
  0.00000000E+00  0.00000000E+00  0.00000000E+00
  0.00000000E+00  0.00000000E+00  0.00000000E+00
  0.00000000E+00  0.00000000E+00  0.00000000E+00
  0.00000000E+00  0.00000000E+00  0.00000000E+00
  0.00000000E+00  0.00000000E+00  0.00000000E+00
