C O S H                                 
   1.00000000000000     
    40.0000000000000000    0.0000000000000000    0.0000000000000000
     0.0000000000000000   40.0000000000000000    0.0000000000000000
     0.0000000000000000    0.0000000000000000   40.0000000000000000
   C    O    S    H 
    14     2     2    14
Selective dynamics
Direct
  0.5477865179729235  0.5348084453949298  0.5072181705935321   T   T   T
  0.5419309911089769  0.5088938822872464  0.4843397811247456   T   T   T
  0.5668530547316166  0.4855953401208808  0.4775810951771078   T   T   T
  0.5979652078889757  0.4876115238255352  0.4937881658853343   T   T   T
  0.6038762632621157  0.5134179500886731  0.5168141212017048   T   T   T
  0.5788273516496076  0.5369433728660269  0.5232753285968244   T   T   T
  0.6529383273369902  0.4646998841926901  0.5013088218676600   T   T   T
  0.4522154702452141  0.5348155338090521  0.4927920675718696   T   T   T
  0.4580694261396090  0.5088915554971010  0.5156630141241578   T   T   T
  0.4331458805564097  0.4855945688672492  0.5224151354539686   T   T   T
  0.4020319779265975  0.4876203460348592  0.5062114552982990   T   T   T
  0.3961237269196474  0.5134350516922765  0.4831937882090074   T   T   T
  0.4211737039516805  0.5369618524305650  0.4767412234993884   T   T   T
  0.3470596331679658  0.4647122047436909  0.4986756496741833   T   T   T
  0.6207549025354737  0.4634830005763462  0.4854068858983425   T   T   T
  0.3792430438469694  0.4634885134179925  0.5145830342980915   T   T   T
  0.5172966820450497  0.5654191838159477  0.5185687868914997   T   T   T
  0.4827099596714532  0.5654237934565245  0.4814450652246549   T   T   T
  0.5838019856705046  0.5570781777959226  0.5410180034851209   T   T   T
  0.6277772475763612  0.5157643377478180  0.5296215957347528   T   T   T
  0.6506122330389417  0.4621077603461572  0.5286142036728947   T   T   T
  0.6660680217523165  0.4881484494841075  0.4953396634571376   T   T   T
  0.6669485677194800  0.4434784414214548  0.4911937527703429   T   T   T
  0.5624895627073130  0.4654732246924240  0.4597000008045882   T   T   T
  0.5179178291598916  0.5070085293699762  0.4715342520869328   T   T   T
  0.4161983045310080  0.5571016377651077  0.4590038847123665   T   T   T
  0.3722234529448727  0.5157846668258159  0.4703894271717814   T   T   T
  0.3493896832167778  0.4621269803574322  0.4713710376516289   T   T   T
  0.3330488804199803  0.4434885393894135  0.5087824210698386   T   T   T
  0.3339302497657570  0.4881575957483335  0.5046515908485176   T   T   T
  0.4375093972904338  0.4654655684205053  0.5402890736621302   T   T   T
  0.4820834632490971  0.5070000875179517  0.5284665022816171   T   T   T
 
  0.00000000E+00  0.00000000E+00  0.00000000E+00
  0.00000000E+00  0.00000000E+00  0.00000000E+00
  0.00000000E+00  0.00000000E+00  0.00000000E+00
  0.00000000E+00  0.00000000E+00  0.00000000E+00
  0.00000000E+00  0.00000000E+00  0.00000000E+00
  0.00000000E+00  0.00000000E+00  0.00000000E+00
  0.00000000E+00  0.00000000E+00  0.00000000E+00
  0.00000000E+00  0.00000000E+00  0.00000000E+00
  0.00000000E+00  0.00000000E+00  0.00000000E+00
  0.00000000E+00  0.00000000E+00  0.00000000E+00
  0.00000000E+00  0.00000000E+00  0.00000000E+00
  0.00000000E+00  0.00000000E+00  0.00000000E+00
  0.00000000E+00  0.00000000E+00  0.00000000E+00
  0.00000000E+00  0.00000000E+00  0.00000000E+00
  0.00000000E+00  0.00000000E+00  0.00000000E+00
  0.00000000E+00  0.00000000E+00  0.00000000E+00
  0.00000000E+00  0.00000000E+00  0.00000000E+00
  0.00000000E+00  0.00000000E+00  0.00000000E+00
  0.00000000E+00  0.00000000E+00  0.00000000E+00
  0.00000000E+00  0.00000000E+00  0.00000000E+00
  0.00000000E+00  0.00000000E+00  0.00000000E+00
  0.00000000E+00  0.00000000E+00  0.00000000E+00
  0.00000000E+00  0.00000000E+00  0.00000000E+00
  0.00000000E+00  0.00000000E+00  0.00000000E+00
  0.00000000E+00  0.00000000E+00  0.00000000E+00
  0.00000000E+00  0.00000000E+00  0.00000000E+00
  0.00000000E+00  0.00000000E+00  0.00000000E+00
  0.00000000E+00  0.00000000E+00  0.00000000E+00
  0.00000000E+00  0.00000000E+00  0.00000000E+00
  0.00000000E+00  0.00000000E+00  0.00000000E+00
  0.00000000E+00  0.00000000E+00  0.00000000E+00
  0.00000000E+00  0.00000000E+00  0.00000000E+00
