C N O H                                 
   1.00000000000000     
    40.0000000000000000    0.0000000000000000    0.0000000000000000
     0.0000000000000000   40.0000000000000000    0.0000000000000000
     0.0000000000000000    0.0000000000000000   40.0000000000000000
   C    N    O    H 
     8     1     3     7
Selective dynamics
Direct
  0.5013454587180813  0.4634507090660614  0.4999806262628360   T   T   T
  0.4666205936839985  0.4633637873581830  0.5000057726657436   T   T   T
  0.4499184670450966  0.4940669068559329  0.5000392040348253   T   T   T
  0.4669447270282925  0.5245369861603443  0.5000471416225133   T   T   T
  0.5017785979309263  0.5241717503196995  0.5000162061738419   T   T   T
  0.5192778032362998  0.4936837786143018  0.4999821111307089   T   T   T
  0.5568885045967896  0.4920797536021099  0.4999542410065817   T   T   T
  0.5765073602517606  0.5241649027615218  0.4999404439434352   T   T   T
  0.4130821648891631  0.4942536649195198  0.5000658854709744   T   T   T
  0.5710382531923623  0.4646246724030431  0.4999485180397936   T   T   T
  0.3985373712920907  0.5217118403642621  0.5000905132113744   T   T   T
  0.3983112666563854  0.4669141077350326  0.5000623374017596   T   T   T
  0.5703285931477844  0.5392830713811952  0.5220695799934758   T   T   T
  0.6032623271222127  0.5184324414699698  0.4998767436094433   T   T   T
  0.5702298504262869  0.5393371367572251  0.4778789660630772   T   T   T
  0.5151018999790545  0.5479122823880096  0.5000198622498087   T   T   T
  0.4530969460372956  0.5479475265201564  0.5000698673691408   T   T   T
  0.4525613664794383  0.4400795229955546  0.4999972969413665   T   T   T
  0.5151674482866765  0.4399891583278813  0.4999536828093024   T   T   T
 
  0.00000000E+00  0.00000000E+00  0.00000000E+00
  0.00000000E+00  0.00000000E+00  0.00000000E+00
  0.00000000E+00  0.00000000E+00  0.00000000E+00
  0.00000000E+00  0.00000000E+00  0.00000000E+00
  0.00000000E+00  0.00000000E+00  0.00000000E+00
  0.00000000E+00  0.00000000E+00  0.00000000E+00
  0.00000000E+00  0.00000000E+00  0.00000000E+00
  0.00000000E+00  0.00000000E+00  0.00000000E+00
  0.00000000E+00  0.00000000E+00  0.00000000E+00
  0.00000000E+00  0.00000000E+00  0.00000000E+00
  0.00000000E+00  0.00000000E+00  0.00000000E+00
  0.00000000E+00  0.00000000E+00  0.00000000E+00
  0.00000000E+00  0.00000000E+00  0.00000000E+00
  0.00000000E+00  0.00000000E+00  0.00000000E+00
  0.00000000E+00  0.00000000E+00  0.00000000E+00
  0.00000000E+00  0.00000000E+00  0.00000000E+00
  0.00000000E+00  0.00000000E+00  0.00000000E+00
  0.00000000E+00  0.00000000E+00  0.00000000E+00
  0.00000000E+00  0.00000000E+00  0.00000000E+00
