!PBE0 def2-SV(p) Opt Freq d3 TightSCF SlowConv RIJCOSX defgrid2
 
%pal
nprocs 4
end
 
%scf
MaxIter 1500
end
 
%maxcore 3000
 

 
* xyz 1 2
N    -0.1356111    0.0525827   -0.1955367 
C    -1.3061565   -0.0855386    0.5985711 
C    -2.5655864    0.3721289   -0.1736100 
H    -3.4323660    0.2285298    0.4651894 
H    -2.6874617   -0.2244391   -1.0745309 
H    -2.5026884    1.4213578   -0.4471339 
H    -1.4354897   -1.1300547    0.8873137 
H    -1.2165357    0.5399595    1.4941569 
C     0.4470815   -1.0937580   -0.8004260 
C     1.1474825   -2.0243372    0.2137243 
H     0.4559204   -2.3983245    0.9630282 
H     1.5593711   -2.8711270   -0.3281649 
H     1.9564765   -1.4964124    0.7109733 
H    -0.3500482   -1.6817299   -1.2759382 
H     1.1668544   -0.7805237   -1.5590476 
C     0.4304485    1.3390918   -0.4036556 
C     1.8236662    1.4745964    0.2454757 
H     2.5401594    0.7875521   -0.1940055 
H     1.7534423    1.2898856    1.3144644 
H     2.1778705    2.4891131    0.0851835 
H     0.5541777    1.5113254   -1.4809576 
H    -0.2326159    2.0998557    0.0105085
*
