C N H                                   
   1.00000000000000     
    40.0000000000000000    0.0000000000000000    0.0000000000000000
     0.0000000000000000   40.0000000000000000    0.0000000000000000
     0.0000000000000000    0.0000000000000000   40.0000000000000000
   C    N    H 
     3     2     4
Selective dynamics
Direct
  0.5049714337634796  0.5246452491101437  0.5000009999999975   T   T   T
  0.5252862500783877  0.4965526261439877  0.5000000000000000   T   T   T
  0.5027947167342006  0.4693074124042695  0.5000009999999975   T   T   T
  0.4708338929949036  0.4794791188713674  0.4999990000000025   T   T   T
  0.4730011868693467  0.5131814215738899  0.4999990000000025   T   T   T
  0.4517573758203852  0.5269447306352788  0.4999990000000025   T   T   T
  0.5083777237884490  0.4427374839642724  0.5000009999999975   T   T   T
  0.5523747983842995  0.4959804335065812  0.5000000000000000   T   T   T
  0.5106016215665363  0.5511705237902191  0.5000009999999975   T   T   T
 
  0.00000000E+00  0.00000000E+00  0.00000000E+00
  0.00000000E+00  0.00000000E+00  0.00000000E+00
  0.00000000E+00  0.00000000E+00  0.00000000E+00
  0.00000000E+00  0.00000000E+00  0.00000000E+00
  0.00000000E+00  0.00000000E+00  0.00000000E+00
  0.00000000E+00  0.00000000E+00  0.00000000E+00
  0.00000000E+00  0.00000000E+00  0.00000000E+00
  0.00000000E+00  0.00000000E+00  0.00000000E+00
  0.00000000E+00  0.00000000E+00  0.00000000E+00
