C N H                                   
   1.00000000000000     
    40.0000000000000000    0.0000000000000000    0.0000000000000000
     0.0000000000000000   40.0000000000000000    0.0000000000000000
     0.0000000000000000    0.0000000000000000   40.0000000000000000
   C    N    H 
     6     2     8
Selective dynamics
Direct
  0.4815988345430129  0.5347733036758916  0.5002968026948047   T   T   T
  0.4511731190929977  0.5174765754962013  0.5002734285021093   T   T   T
  0.4511711781987174  0.4825237452045968  0.4997291661507360   T   T   T
  0.4815986239483405  0.4652273300029660  0.4997054710538970   T   T   T
  0.5122863494902707  0.4822089763086134  0.5001073301089882   T   T   T
  0.5122881638931365  0.5177912955302399  0.4998949141735179   T   T   T
  0.5428660837770600  0.4651486973519698  0.4991052605426173   T   T   T
  0.5428672088719444  0.5348512791517810  0.5008916989487212   T   T   T
  0.5614406273010807  0.4758481466644920  0.5128432827429542   T   T   T
  0.5411188085032560  0.4403098182067352  0.5042587622659425   T   T   T
  0.5614420185480098  0.5241491989473194  0.4871553790120280   T   T   T
  0.5411216373346805  0.5596900181790737  0.4957397426297431   T   T   T
  0.4818273539245285  0.4379081357925490  0.4997266904612130   T   T   T
  0.4276850856686950  0.4686406146217500  0.4995297698533267   T   T   T
  0.4276865592416829  0.5313607621185173  0.5004687092595985   T   T   T
  0.4818283476625935  0.5620921027473238  0.5002725915998044   T   T   T
 
  0.00000000E+00  0.00000000E+00  0.00000000E+00
  0.00000000E+00  0.00000000E+00  0.00000000E+00
  0.00000000E+00  0.00000000E+00  0.00000000E+00
  0.00000000E+00  0.00000000E+00  0.00000000E+00
  0.00000000E+00  0.00000000E+00  0.00000000E+00
  0.00000000E+00  0.00000000E+00  0.00000000E+00
  0.00000000E+00  0.00000000E+00  0.00000000E+00
  0.00000000E+00  0.00000000E+00  0.00000000E+00
  0.00000000E+00  0.00000000E+00  0.00000000E+00
  0.00000000E+00  0.00000000E+00  0.00000000E+00
  0.00000000E+00  0.00000000E+00  0.00000000E+00
  0.00000000E+00  0.00000000E+00  0.00000000E+00
  0.00000000E+00  0.00000000E+00  0.00000000E+00
  0.00000000E+00  0.00000000E+00  0.00000000E+00
  0.00000000E+00  0.00000000E+00  0.00000000E+00
  0.00000000E+00  0.00000000E+00  0.00000000E+00
