!PBE0 def2-SV(p) Opt Freq d3 TightSCF SlowConv RIJCOSX defgrid2
 
%pal
nprocs 4
end
 
%scf
MaxIter 1500
end
 
%maxcore 3000
 

 
* xyz 0 1
C    -1.2166905    0.6623675    0.0000403 
C    -0.0347438    1.3848185    0.0000181 
C     1.1819348    0.7224986   -0.0000085 
C     1.2166911   -0.6623573   -0.0000064 
C     0.0347439   -1.3848064    0.0000003 
C    -1.1819365   -0.7224872    0.0000263 
H    -2.1038524   -1.2860588    0.0000327 
H     0.0618046   -2.4650026   -0.0000216 
H     2.1656677   -1.1790528    0.0000098 
H     2.1038527    1.2860658   -0.0000097 
H    -0.0618087    2.4650165    0.0000367 
H    -2.1656639    1.1790653    0.0000005
*
