C O H                                   
   1.00000000000000     
    40.0000000000000000    0.0000000000000000    0.0000000000000000
     0.0000000000000000   40.0000000000000000    0.0000000000000000
     0.0000000000000000    0.0000000000000000   40.0000000000000000
   C    O    H 
    10     1    12
Selective dynamics
Direct
  0.5029321055269944  0.5301022241354076  0.4999997626497042   T   T   T
  0.4689016845750366  0.5359207888922028  0.4999996987042027   T   T   T
  0.4463576561374277  0.5091051959252578  0.4999993269905763   T   T   T
  0.4584509776521186  0.4764068236302226  0.5000024150223202   T   T   T
  0.4928784280040779  0.4710314359088482  0.5000043826475089   T   T   T
  0.5159158222571678  0.4973890437370616  0.5000022591299050   T   T   T
  0.5517000430909802  0.4898418713811502  0.5000035735716483   T   T   T
  0.5771706396776503  0.5116184631738376  0.4999984976656119   T   T   T
  0.6131921009412497  0.5018924883901760  0.4999995005208553   T   T   T
  0.3893265126144908  0.4910318732068734  0.4999972615367041   T   T   T
  0.4133265752556503  0.5175785394959592  0.4999980767610535   T   T   T
  0.6261094222163710  0.5120956165534380  0.5218929040170112   T   T   T
  0.6261101377737857  0.5120884995590230  0.4781038618034119   T   T   T
  0.6163261082558056  0.4747767498855857  0.5000051279746189   T   T   T
  0.5721322730034883  0.5383585133794125  0.4999947497850061   T   T   T
  0.5577187835303717  0.4632475418135523  0.5000063492982197   T   T   T
  0.5020994729974586  0.4454877657109241  0.5000049837651692   T   T   T
  0.4416504125958091  0.4551981408393678  0.5000019986712138   T   T   T
  0.3919521288039648  0.4755277292436419  0.5223520907166216   T   T   T
  0.3919557167294859  0.4755272761668093  0.4776426950450227   T   T   T
  0.3650118152421307  0.5031841917778413  0.4999940092627596   T   T   T
  0.4590805428860582  0.5611878922827167  0.4999965804050934   T   T   T
  0.5197026402324426  0.5514013349107045  0.4999988940557492   T   T   T
 
  0.00000000E+00  0.00000000E+00  0.00000000E+00
  0.00000000E+00  0.00000000E+00  0.00000000E+00
  0.00000000E+00  0.00000000E+00  0.00000000E+00
  0.00000000E+00  0.00000000E+00  0.00000000E+00
  0.00000000E+00  0.00000000E+00  0.00000000E+00
  0.00000000E+00  0.00000000E+00  0.00000000E+00
  0.00000000E+00  0.00000000E+00  0.00000000E+00
  0.00000000E+00  0.00000000E+00  0.00000000E+00
  0.00000000E+00  0.00000000E+00  0.00000000E+00
  0.00000000E+00  0.00000000E+00  0.00000000E+00
  0.00000000E+00  0.00000000E+00  0.00000000E+00
  0.00000000E+00  0.00000000E+00  0.00000000E+00
  0.00000000E+00  0.00000000E+00  0.00000000E+00
  0.00000000E+00  0.00000000E+00  0.00000000E+00
  0.00000000E+00  0.00000000E+00  0.00000000E+00
  0.00000000E+00  0.00000000E+00  0.00000000E+00
  0.00000000E+00  0.00000000E+00  0.00000000E+00
  0.00000000E+00  0.00000000E+00  0.00000000E+00
  0.00000000E+00  0.00000000E+00  0.00000000E+00
  0.00000000E+00  0.00000000E+00  0.00000000E+00
  0.00000000E+00  0.00000000E+00  0.00000000E+00
  0.00000000E+00  0.00000000E+00  0.00000000E+00
  0.00000000E+00  0.00000000E+00  0.00000000E+00
