C O H                                   
   1.00000000000000     
    40.0000000000000000    0.0000000000000000    0.0000000000000000
     0.0000000000000000   40.0000000000000000    0.0000000000000000
     0.0000000000000000    0.0000000000000000   40.0000000000000000
   C    O    H 
     4     2     8
Selective dynamics
Direct
  0.5190210197748470  0.4706203358743508  0.5059912122215096   T   T   T
  0.4809809802251479  0.4706193358743462  0.4940087877784904   T   T   T
  0.4809789802251530  0.5293796641256492  0.4940087877784904   T   T   T
  0.5190190197748521  0.5293806641256538  0.5059912122215096   T   T   T
  0.4669203133923716  0.4999990000000025  0.5070283353893004   T   T   T
  0.5330796866076284  0.5000009999999975  0.4929716646106996   T   T   T
  0.4682671884024998  0.4491515369171211  0.5052721988335946   T   T   T
  0.4807033170115957  0.4700487410190703  0.4665317503826856   T   T   T
  0.5317328115975002  0.5508484630828789  0.4947278011664054   T   T   T
  0.5192966829884043  0.5299512589809297  0.5334682496173144   T   T   T
  0.4682641884025003  0.5508464630828769  0.5052731988335992   T   T   T
  0.4807003170115962  0.5299512589809297  0.4665327503826902   T   T   T
  0.5317358115974997  0.4491535369171231  0.4947268011664008   T   T   T
  0.5192996829884038  0.4700487410190703  0.5334672496173098   T   T   T
 
  0.00000000E+00  0.00000000E+00  0.00000000E+00
  0.00000000E+00  0.00000000E+00  0.00000000E+00
  0.00000000E+00  0.00000000E+00  0.00000000E+00
  0.00000000E+00  0.00000000E+00  0.00000000E+00
  0.00000000E+00  0.00000000E+00  0.00000000E+00
  0.00000000E+00  0.00000000E+00  0.00000000E+00
  0.00000000E+00  0.00000000E+00  0.00000000E+00
  0.00000000E+00  0.00000000E+00  0.00000000E+00
  0.00000000E+00  0.00000000E+00  0.00000000E+00
  0.00000000E+00  0.00000000E+00  0.00000000E+00
  0.00000000E+00  0.00000000E+00  0.00000000E+00
  0.00000000E+00  0.00000000E+00  0.00000000E+00
  0.00000000E+00  0.00000000E+00  0.00000000E+00
  0.00000000E+00  0.00000000E+00  0.00000000E+00
