C H                                     
   1.00000000000000     
    40.0000000000000000    0.0000000000000000    0.0000000000000000
     0.0000000000000000   40.0000000000000000    0.0000000000000000
     0.0000000000000000    0.0000000000000000   40.0000000000000000
   C    H 
    12    14
Selective dynamics
Direct
  0.5124009686763432  0.4676973451656071  0.4999975357014418   T   T   T
  0.5353780439964834  0.4944919305076028  0.4999979164072220   T   T   T
  0.5219454191022396  0.5270643904353887  0.4999924407119924   T   T   T
  0.4875975212304099  0.5323036906661144  0.4999908854063971   T   T   T
  0.4646219325568243  0.5055090758917025  0.4999884270886647   T   T   T
  0.4780540311485976  0.4729361463616479  0.4999913305028882   T   T   T
  0.4287512646496948  0.5127925827126728  0.4999859900308454   T   T   T
  0.4033068125926068  0.4907398847048184  0.5000061012267678   T   T   T
  0.3671311580817727  0.5000196509444622  0.5000107166994628   T   T   T
  0.5712481293741996  0.4872074159955137  0.5000009716112294   T   T   T
  0.5966934236446103  0.5092597369040752  0.5000030452354334   T   T   T
  0.6328693493349096  0.4999796533533056  0.5000062268769472   T   T   T
  0.4614342511864742  0.4513102557934947  0.4999911807081400   T   T   T
  0.3542017987485164  0.4896024042194332  0.4780232646013490   T   T   T
  0.3635886973664279  0.5272445751382426  0.4999863243792150   T   T   T
  0.3542139213810401  0.4896433455589530  0.5220243008575356   T   T   T
  0.4087049021211011  0.4639059892765415  0.5000325610366896   T   T   T
  0.4224314762184900  0.5394774386790095  0.4999672144097835   T   T   T
  0.4780019259871506  0.5578753751285178  0.4999864401722224   T   T   T
  0.5385653762248542  0.5486904573951551  0.4999932769108494   T   T   T
  0.6457922327075746  0.5103800258254776  0.5220053806444137   T   T   T
  0.6457937262111677  0.5103732889341718  0.4780039460701662   T   T   T
  0.6364124856319704  0.4727544961519273  0.5000102107206321   T   T   T
  0.5912965319514837  0.5360933531221820  0.5000007704033205   T   T   T
  0.5775675371755714  0.4605230363619783  0.5000040033096689   T   T   T
  0.5219970826994784  0.4421254547720158  0.4999985382766603   T   T   T
 
  0.00000000E+00  0.00000000E+00  0.00000000E+00
  0.00000000E+00  0.00000000E+00  0.00000000E+00
  0.00000000E+00  0.00000000E+00  0.00000000E+00
  0.00000000E+00  0.00000000E+00  0.00000000E+00
  0.00000000E+00  0.00000000E+00  0.00000000E+00
  0.00000000E+00  0.00000000E+00  0.00000000E+00
  0.00000000E+00  0.00000000E+00  0.00000000E+00
  0.00000000E+00  0.00000000E+00  0.00000000E+00
  0.00000000E+00  0.00000000E+00  0.00000000E+00
  0.00000000E+00  0.00000000E+00  0.00000000E+00
  0.00000000E+00  0.00000000E+00  0.00000000E+00
  0.00000000E+00  0.00000000E+00  0.00000000E+00
  0.00000000E+00  0.00000000E+00  0.00000000E+00
  0.00000000E+00  0.00000000E+00  0.00000000E+00
  0.00000000E+00  0.00000000E+00  0.00000000E+00
  0.00000000E+00  0.00000000E+00  0.00000000E+00
  0.00000000E+00  0.00000000E+00  0.00000000E+00
  0.00000000E+00  0.00000000E+00  0.00000000E+00
  0.00000000E+00  0.00000000E+00  0.00000000E+00
  0.00000000E+00  0.00000000E+00  0.00000000E+00
  0.00000000E+00  0.00000000E+00  0.00000000E+00
  0.00000000E+00  0.00000000E+00  0.00000000E+00
  0.00000000E+00  0.00000000E+00  0.00000000E+00
  0.00000000E+00  0.00000000E+00  0.00000000E+00
  0.00000000E+00  0.00000000E+00  0.00000000E+00
  0.00000000E+00  0.00000000E+00  0.00000000E+00
