C N H                                   
   1.00000000000000     
    40.0000000000000000    0.0000000000000000    0.0000000000000000
     0.0000000000000000   40.0000000000000000    0.0000000000000000
     0.0000000000000000    0.0000000000000000   40.0000000000000000
   C    N    H 
    12     1    11
Selective dynamics
Direct
  0.4416422336449212  0.4689299735358554  0.5107215349878699   T   T   T
  0.4099454067271597  0.4825094092848602  0.5103006070994849   T   T   T
  0.4048575182183130  0.5149092859156826  0.4981493295182244   T   T   T
  0.4318443034038246  0.5336999352603851  0.4862529654927443   T   T   T
  0.4638625020970908  0.5207813112422963  0.4868850787335966   T   T   T
  0.4689997359478600  0.4882593018716633  0.4995573531167081   T   T   T
  0.5310002640521403  0.4882593018716633  0.5004416468832874   T   T   T
  0.5361374979029095  0.5207813112422963  0.5131139212664061   T   T   T
  0.5681556965961756  0.5336999352603851  0.5137470345072557   T   T   T
  0.5951424817816866  0.5149082859156852  0.5018506704817755   T   T   T
  0.5900545932728399  0.4825084092848556  0.4897003929005197   T   T   T
  0.5583577663550785  0.4689289735358579  0.4892794650121275   T   T   T
  0.5000000000000000  0.4734661949720597  0.5000000000000000   T   T   T
  0.5539922219826902  0.4439345402517099  0.4798448823097753   T   T   T
  0.6110084620996280  0.4679391611809662  0.4806683467393259   T   T   T
  0.6201355832961324  0.5252917396787800  0.5025868952521770   T   T   T
  0.5723526857824207  0.5583170804297214  0.5241885607900914   T   T   T
  0.5155138521635133  0.5346760906034119  0.5237315605629976   T   T   T
  0.5000000000000000  0.4480391465172583  0.5000000000000000   T   T   T
  0.4844861478364867  0.5346760906034119  0.4762674394369976   T   T   T
  0.4276473142175792  0.5583170804297214  0.4758114392099088   T   T   T
  0.3798644167038673  0.5252927396787774  0.4974141047478204   T   T   T
  0.3889915379003722  0.4679401611809708  0.5193326532606715   T   T   T
  0.4460077780173100  0.4439345402517099  0.5201551176902175   T   T   T
 
  0.00000000E+00  0.00000000E+00  0.00000000E+00
  0.00000000E+00  0.00000000E+00  0.00000000E+00
  0.00000000E+00  0.00000000E+00  0.00000000E+00
  0.00000000E+00  0.00000000E+00  0.00000000E+00
  0.00000000E+00  0.00000000E+00  0.00000000E+00
  0.00000000E+00  0.00000000E+00  0.00000000E+00
  0.00000000E+00  0.00000000E+00  0.00000000E+00
  0.00000000E+00  0.00000000E+00  0.00000000E+00
  0.00000000E+00  0.00000000E+00  0.00000000E+00
  0.00000000E+00  0.00000000E+00  0.00000000E+00
  0.00000000E+00  0.00000000E+00  0.00000000E+00
  0.00000000E+00  0.00000000E+00  0.00000000E+00
  0.00000000E+00  0.00000000E+00  0.00000000E+00
  0.00000000E+00  0.00000000E+00  0.00000000E+00
  0.00000000E+00  0.00000000E+00  0.00000000E+00
  0.00000000E+00  0.00000000E+00  0.00000000E+00
  0.00000000E+00  0.00000000E+00  0.00000000E+00
  0.00000000E+00  0.00000000E+00  0.00000000E+00
  0.00000000E+00  0.00000000E+00  0.00000000E+00
  0.00000000E+00  0.00000000E+00  0.00000000E+00
  0.00000000E+00  0.00000000E+00  0.00000000E+00
  0.00000000E+00  0.00000000E+00  0.00000000E+00
  0.00000000E+00  0.00000000E+00  0.00000000E+00
  0.00000000E+00  0.00000000E+00  0.00000000E+00
