!PBE0 aug-cc-pVTZ d3 TightSCF SlowConv RIJCOSX defgrid2

%pal
nprocs 15
end

%scf
MaxIter 1500
end

%maxcore 3500

!CPCM
%cpcm smd true
SMDsolvent "WATER"
surfacetype gepol_ses
rsolv 1.40
end

* xyz 0 2
O           1.88690927477882      3.74806898805585      1.42790289574278
N           2.66570902784045      2.77513380487914      1.23314234100198
C           3.71807770622021      2.91486477310037      0.20083862291935
C           4.06679330721770      1.52187309981258     -0.33561683406574
C           4.26235980542420      0.51991448657483      0.75657521226637
C           3.67404864254557      0.65032800080598      1.94644397870158
C           2.73307636235429      1.76248913631005      2.31086399015079
C           4.95112257605395      3.58551917484617      0.81923431194237
C           3.16091226951920      3.78193702577193     -0.92132048240517
C           3.17395858898893      2.44345537325049      3.61369764885195
C           1.32073939913320      1.18748524121188      2.48092813116148
H           4.97513017363378      1.60092795230428     -0.95867141911157
H           3.26044945528291      1.18093042448815     -1.01431485641457
H           4.90234278810831     -0.34794900982598      0.56007401454088
H           3.82972945021685     -0.10316520119785      2.72741095147656
H           4.65258295126461      4.52123052785349      1.32092945486630
H           5.44112718582814      2.92720008818477      1.55542007959442
H           5.68693306335011      3.83067566104788      0.03349341051902
H           2.94941849475266      4.80089518300529     -0.56613909595122
H           2.22162992414553      3.35760034153928     -1.31367493520621
H           3.89642864117668      3.83221617465297     -1.74256230977595
H           2.49710932074295      3.28563400859979      3.82950614292032
H           4.20428697805417      2.82730905875215      3.53671032500385
H           3.13322334174784      1.72739398341330      4.45203000678507
H           0.61667710656740      2.00289288566967      2.71131797235433
H           0.99501687952592      0.68921661071683      1.55267423468629
H           1.30310628552554      0.45079320617666      3.30164820744471
*
