C N H                                   
   1.00000000000000     
    40.0000000000000000    0.0000000000000000    0.0000000000000000
     0.0000000000000000   40.0000000000000000    0.0000000000000000
     0.0000000000000000    0.0000000000000000   40.0000000000000000
   C    N    H 
     5     1    11
Selective dynamics
Direct
  0.4656713139520927  0.5000009814343898  0.5039448061704364   T   T   T
  0.4842678324797538  0.4685966107607228  0.4926547906852217   T   T   T
  0.5206158959174833  0.4697792125160003  0.5039756185132708   T   T   T
  0.5206154271451698  0.5302201523020376  0.5039790457545456   T   T   T
  0.4842689879295128  0.5314040055454513  0.4926527280751993   T   T   T
  0.5366339454077214  0.5000005538328409  0.4910696528618548   T   T   T
  0.5611503487978872  0.5000002722030601  0.4975363987065105   T   T   T
  0.4722542458268268  0.5538355494323521  0.5026654390500533   T   T   T
  0.4835767441656742  0.5331900101327874  0.4653202560776417   T   T   T
  0.5342990208810935  0.5519482546670937  0.4946387832174230   T   T   T
  0.5213028532535589  0.5312156639419044  0.5316281258725388   T   T   T
  0.5342975576635925  0.4480522780034683  0.4946303641727047   T   T   T
  0.5213077139585494  0.4687792100162610  0.5316259853715002   T   T   T
  0.4722536349475365  0.4461672931051598  0.5026732135100269   T   T   T
  0.4835707932589699  0.4668066002997805  0.4653230438360889   T   T   T
  0.4400582976028048  0.5000013381347301  0.4943598011605585   T   T   T
  0.4638563868117629  0.5000030136719644  0.5313219469643964   T   T   T
 
  0.00000000E+00  0.00000000E+00  0.00000000E+00
  0.00000000E+00  0.00000000E+00  0.00000000E+00
  0.00000000E+00  0.00000000E+00  0.00000000E+00
  0.00000000E+00  0.00000000E+00  0.00000000E+00
  0.00000000E+00  0.00000000E+00  0.00000000E+00
  0.00000000E+00  0.00000000E+00  0.00000000E+00
  0.00000000E+00  0.00000000E+00  0.00000000E+00
  0.00000000E+00  0.00000000E+00  0.00000000E+00
  0.00000000E+00  0.00000000E+00  0.00000000E+00
  0.00000000E+00  0.00000000E+00  0.00000000E+00
  0.00000000E+00  0.00000000E+00  0.00000000E+00
  0.00000000E+00  0.00000000E+00  0.00000000E+00
  0.00000000E+00  0.00000000E+00  0.00000000E+00
  0.00000000E+00  0.00000000E+00  0.00000000E+00
  0.00000000E+00  0.00000000E+00  0.00000000E+00
  0.00000000E+00  0.00000000E+00  0.00000000E+00
  0.00000000E+00  0.00000000E+00  0.00000000E+00
