C N H                                   
   1.00000000000000     
    40.0000000000000000    0.0000000000000000    0.0000000000000000
     0.0000000000000000   40.0000000000000000    0.0000000000000000
     0.0000000000000000    0.0000000000000000   40.0000000000000000
   C    N    H 
     6     1    15
Selective dynamics
Direct
  0.4467861873941017  0.4701099546569658  0.4923572665225331   T   T   T
  0.4687948537981330  0.5019357453052090  0.4932922634629338   T   T   T
  0.5319122727585501  0.4946299249672336  0.4917110566443703   T   T   T
  0.5436914159029371  0.5317772152075513  0.4899240698285070   T   T   T
  0.5575499661499703  0.4721867807859904  0.5087981331194877   T   T   T
  0.4516200307421985  0.5302046756392379  0.5129519641013869   T   T   T
  0.5002754327891550  0.4937773170637285  0.5087579169671518   T   T   T
  0.5000708971142415  0.4883745796334838  0.5338698088383618   T   T   T
  0.5480462231254132  0.5415967927867449  0.5151461057646950   T   T   T
  0.5252933255495271  0.5474243100701880  0.4769745340899895   T   T   T
  0.5672050606214597  0.5320431116869908  0.4757931983167729   T   T   T
  0.5487444952901469  0.4462231621455829  0.5098254103974387   T   T   T
  0.5809072984944939  0.4729275237618118  0.4944379631879061   T   T   T
  0.5629072220136165  0.4808846612609826  0.5343045028665001   T   T   T
  0.5270860476843762  0.4864964810214006  0.4658134269220447   T   T   T
  0.4670899285601743  0.5528423442339675  0.5131934377469404   T   T   T
  0.4464769332509468  0.5225128369381296  0.5387919333534141   T   T   T
  0.4277602929330551  0.5358199568783099  0.5006147682587584   T   T   T
  0.4741940675859789  0.5099456860263963  0.4675960964934333   T   T   T
  0.4590415535263960  0.4501420921257105  0.4781468689491394   T   T   T
  0.4412997361987863  0.4612812588759659  0.5177437143085286   T   T   T
  0.4232457585163234  0.4768655889284497  0.4799565598597181   T   T   T
 
  0.00000000E+00  0.00000000E+00  0.00000000E+00
  0.00000000E+00  0.00000000E+00  0.00000000E+00
  0.00000000E+00  0.00000000E+00  0.00000000E+00
  0.00000000E+00  0.00000000E+00  0.00000000E+00
  0.00000000E+00  0.00000000E+00  0.00000000E+00
  0.00000000E+00  0.00000000E+00  0.00000000E+00
  0.00000000E+00  0.00000000E+00  0.00000000E+00
  0.00000000E+00  0.00000000E+00  0.00000000E+00
  0.00000000E+00  0.00000000E+00  0.00000000E+00
  0.00000000E+00  0.00000000E+00  0.00000000E+00
  0.00000000E+00  0.00000000E+00  0.00000000E+00
  0.00000000E+00  0.00000000E+00  0.00000000E+00
  0.00000000E+00  0.00000000E+00  0.00000000E+00
  0.00000000E+00  0.00000000E+00  0.00000000E+00
  0.00000000E+00  0.00000000E+00  0.00000000E+00
  0.00000000E+00  0.00000000E+00  0.00000000E+00
  0.00000000E+00  0.00000000E+00  0.00000000E+00
  0.00000000E+00  0.00000000E+00  0.00000000E+00
  0.00000000E+00  0.00000000E+00  0.00000000E+00
  0.00000000E+00  0.00000000E+00  0.00000000E+00
  0.00000000E+00  0.00000000E+00  0.00000000E+00
  0.00000000E+00  0.00000000E+00  0.00000000E+00
