C N O H                                 
   1.00000000000000     
    25.0000000000000000    0.0000000000000000    0.0000000000000000
     0.0000000000000000   25.0000000000000000    0.0000000000000000
     0.0000000000000000    0.0000000000000000   25.0000000000000000
   C    N    O    H 
    10     1     3    18
Selective dynamics
Direct
  0.5053603419195339  0.5448775557994050  0.4587521106279376   T   T   T
  0.5304851677697728  0.4903856464862615  0.4443779598138544   T   T   T
  0.5408157000651223  0.4544865241114849  0.4925275214786577   T   T   T
  0.4882194535120420  0.4435959109073391  0.5220649685826176   T   T   T
  0.4602684841089768  0.4947813148526142  0.5424404386295902   T   T   T
  0.5456524495404247  0.5824547442964969  0.4874116769741274   T   T   T
  0.4831994840880180  0.5727035674594020  0.4091583874595378   T   T   T
  0.4908474160048825  0.5207696343591447  0.5898060449682661   T   T   T
  0.4026618704676552  0.4832078959501381  0.5589523714147877   T   T   T
  0.5673179819656254  0.4023822294182529  0.4754493385066105   T   T   T
  0.4591457497089106  0.5359135368966833  0.4975101247887245   T   T   T
  0.4195409447247086  0.5630448626775427  0.4924214394606269   T   T   T
  0.5804444972930402  0.3914380683360344  0.4295034537978606   T   T   T
  0.5752552249716741  0.3694712311155134  0.5173699162763555   T   T   T
  0.5678060551403599  0.4992501406053440  0.4229821316381852   T   T   T
  0.5038913118885699  0.4697192602115829  0.4161041752699310   T   T   T
  0.5695373352770685  0.4732861473965136  0.5201980330593046   T   T   T
  0.4947352755206118  0.4183753530259283  0.5573991552821745   T   T   T
  0.4604937436729418  0.4222838841240746  0.4953791319070853   T   T   T
  0.5254359477045761  0.6181530355109621  0.5028722251691847   T   T   T
  0.5677047580222638  0.5628430756180681  0.5196629894379406   T   T   T
  0.5743296418164597  0.5946974702029352  0.4565010502401183   T   T   T
  0.4695397793159620  0.6134038134402435  0.4179122179747766   T   T   T
  0.4501798798190796  0.5498058973417985  0.3915438427100441   T   T   T
  0.5159092061023610  0.5749906371992278  0.3800046308957311   T   T   T
  0.4743872405047241  0.5602973215795245  0.5992064265106199   T   T   T
  0.5338992343246348  0.5239836440320683  0.5829300859624053   T   T   T
  0.4842535633454497  0.4941542043905102  0.6240831317640123   T   T   T
  0.3837215693264588  0.5179363528562163  0.5778044059355487   T   T   T
  0.3785469481401543  0.4704639017308136  0.5245691132334406   T   T   T
  0.4039810082872543  0.4505120713956134  0.5881751758635685   T   T   T
  0.5924337356506871  0.3363320666722519  0.5049273243663576   T   T   T
 
  0.00000000E+00  0.00000000E+00  0.00000000E+00
  0.00000000E+00  0.00000000E+00  0.00000000E+00
  0.00000000E+00  0.00000000E+00  0.00000000E+00
  0.00000000E+00  0.00000000E+00  0.00000000E+00
  0.00000000E+00  0.00000000E+00  0.00000000E+00
  0.00000000E+00  0.00000000E+00  0.00000000E+00
  0.00000000E+00  0.00000000E+00  0.00000000E+00
  0.00000000E+00  0.00000000E+00  0.00000000E+00
  0.00000000E+00  0.00000000E+00  0.00000000E+00
  0.00000000E+00  0.00000000E+00  0.00000000E+00
  0.00000000E+00  0.00000000E+00  0.00000000E+00
  0.00000000E+00  0.00000000E+00  0.00000000E+00
  0.00000000E+00  0.00000000E+00  0.00000000E+00
  0.00000000E+00  0.00000000E+00  0.00000000E+00
  0.00000000E+00  0.00000000E+00  0.00000000E+00
  0.00000000E+00  0.00000000E+00  0.00000000E+00
  0.00000000E+00  0.00000000E+00  0.00000000E+00
  0.00000000E+00  0.00000000E+00  0.00000000E+00
  0.00000000E+00  0.00000000E+00  0.00000000E+00
  0.00000000E+00  0.00000000E+00  0.00000000E+00
  0.00000000E+00  0.00000000E+00  0.00000000E+00
  0.00000000E+00  0.00000000E+00  0.00000000E+00
  0.00000000E+00  0.00000000E+00  0.00000000E+00
  0.00000000E+00  0.00000000E+00  0.00000000E+00
  0.00000000E+00  0.00000000E+00  0.00000000E+00
  0.00000000E+00  0.00000000E+00  0.00000000E+00
  0.00000000E+00  0.00000000E+00  0.00000000E+00
  0.00000000E+00  0.00000000E+00  0.00000000E+00
  0.00000000E+00  0.00000000E+00  0.00000000E+00
  0.00000000E+00  0.00000000E+00  0.00000000E+00
  0.00000000E+00  0.00000000E+00  0.00000000E+00
  0.00000000E+00  0.00000000E+00  0.00000000E+00
