!PBE0 aug-cc-pVTZ d3 TightSCF SlowConv RIJCOSX defgrid2
 
%pal
nprocs 4
end
 
%scf
MaxIter 1500
end
 
%maxcore 3000
 
!CPCM
%cpcm smd true
SMDsolvent "MeCN"
surfacetype gepol_ses
rsolv 2.19
end 
 
* xyz -1 2
C           1.11485619102810      1.23346524770146     -0.04246013453408
C          -0.25819562047262      1.22933924261312     -0.01684176169193
C          -0.98793269131212      0.01064750984396      0.05369590147558
C          -0.25058397748058     -1.19914135084411      0.08408385170358
C           1.12686728083616     -1.19737445120311      0.05863833511697
C           1.88049207762006      0.02114016337723     -0.00784905676085
C           3.31422748057564      0.08999258300288     -0.03795740062188
O           3.95234377580661      1.16292200275802     -0.09390298789975
C           4.09411941134499     -1.22295178548747      0.00021080612150
H           3.89267162008921     -1.80863657997959      0.91865553015964
H           3.85410305658271     -1.88234976738815     -0.85682984004010
H           5.16792059393726     -0.97680478465363     -0.03317483614463
H           1.65189479450597     -2.15740095025540      0.09479003543363
H          -0.78941773964287     -2.15112643070549      0.13915861506264
C          -2.45525752462587      0.00050473870139     -0.00850205506014
F          -2.97297788080586     -0.04926536736079     -1.27295539154986
F          -3.00617659842767     -1.06434755608644      0.61734313114911
F          -3.01722345304082      1.10181905294511      0.53770926863957
H          -0.80650005596301      2.17740366385070     -0.04085176525521
H           1.67725065944470      2.17036951917034     -0.08706394530380
*
