!r2SCANh freq aug-cc-pVTZ d3 TightSCF SlowConv RIJCOSX defgrid2

%pal
nprocs 12
end

%scf
MaxIter 1500
end

%maxcore 5000

!CPCM
%cpcm smd true
SMDsolvent "MeCN"
surfacetype gepol_ses
rsolv 2.19
end 

* xyz 0 1
C           0.93836894221720     -1.26580971409358     -0.00012760337748
C           2.30526537036017     -1.02881033925425     -0.00046544275864
C           2.78373055891943      0.27346087094497     -0.00027889710227
C           1.88804588428732      1.33965104975220      0.00039618990799
C           0.52474109644553      1.10829326079383      0.00067771877135
C           0.03379058876174     -0.20222255198514      0.00029853716140
C          -1.39004007433151     -0.50780477603816      0.00042690466079
N          -2.26934083156919      0.41345343027076     -0.00136762062991
O          -3.55756757572185     -0.11711324752274     -0.00057202198015
H          -4.11894004998728      0.66776028829028     -0.00124748223421
H          -1.68926627385403     -1.55471740293419      0.00236204521533
H          -0.16837893326560      1.93781992086245      0.00134093749962
H           2.25909206048074      2.35575629102732      0.00015942291083
H           3.84896249776850      0.46078040870879     -0.00081483129633
H           2.99534800101894     -1.86158505470857     -0.00083102580281
H           0.56388313846991     -2.28151073411399      0.00025056905448
*
