C N O H                                 
   1.00000000000000     
    25.0000000000000000    0.0000000000000000    0.0000000000000000
     0.0000000000000000   25.0000000000000000    0.0000000000000000
     0.0000000000000000    0.0000000000000000   25.0000000000000000
   C    N    O    H 
     9     2     2    15
Selective dynamics
Direct
  0.5021028876994571  0.4801095318106056  0.4609950729371214   T   T   T
  0.5043351308311852  0.4420860461938406  0.4988869464768144   T   T   T
  0.5018592399685320  0.4631369235682306  0.5546777202117051   T   T   T
  0.4975928381623200  0.5356601436555793  0.4849288161282301   T   T   T
  0.5042179819715875  0.4653514369573088  0.4027273915705155   T   T   T
  0.4442625205208665  0.5650246822106111  0.4741014121512728   T   T   T
  0.5463363736094029  0.5725954529706585  0.4757865245398704   T   T   T
  0.5531622750620396  0.4534717650718388  0.5878897458406754   T   T   T
  0.4514520099958466  0.4459037433660789  0.5861774127420459   T   T   T
  0.4976591201835541  0.5221676824639255  0.5441418725359829   T   T   T
  0.5016771435528824  0.5050004486602071  0.3662557648732055   T   T   T
  0.4947125831091745  0.5553672741014485  0.5787509742534452   T   T   T
  0.5082744776420156  0.4173930627213654  0.3896931595027344   T   T   T
  0.5076722934574629  0.3994259774337809  0.4909937042978365   T   T   T
  0.4440633080609945  0.5789719481063265  0.4325954461870141   T   T   T
  0.4100659009761131  0.5383820864861704  0.4803933832119514   T   T   T
  0.4412577070996564  0.5999534002774412  0.5004615450970469   T   T   T
  0.5431401642528473  0.6076899368824631  0.5018985280587600   T   T   T
  0.5838703485750790  0.5513936495811225  0.4835686481767533   T   T   T
  0.5460367519292816  0.5862255159476258  0.4341725303949848   T   T   T
  0.5553916866797458  0.4103553616897341  0.5955835401026007   T   T   T
  0.5889051123930515  0.4661628522590077  0.5659600082525401   T   T   T
  0.5503258529249259  0.4749890611631114  0.6260124490162765   T   T   T
  0.4149943475135862  0.4532794953670361  0.5630393748453641   T   T   T
  0.4553661130353507  0.4029126230861476  0.5938826593639013   T   T   T
  0.4498437279078679  0.4675119311334450  0.6243203566024034   T   T   T
  0.4982882092479022  0.5443107985877840  0.3752555962958286   T   T   T
  0.5031328936372518  0.4951651682471244  0.3268494163331184   T   T   T
 
  0.00000000E+00  0.00000000E+00  0.00000000E+00
  0.00000000E+00  0.00000000E+00  0.00000000E+00
  0.00000000E+00  0.00000000E+00  0.00000000E+00
  0.00000000E+00  0.00000000E+00  0.00000000E+00
  0.00000000E+00  0.00000000E+00  0.00000000E+00
  0.00000000E+00  0.00000000E+00  0.00000000E+00
  0.00000000E+00  0.00000000E+00  0.00000000E+00
  0.00000000E+00  0.00000000E+00  0.00000000E+00
  0.00000000E+00  0.00000000E+00  0.00000000E+00
  0.00000000E+00  0.00000000E+00  0.00000000E+00
  0.00000000E+00  0.00000000E+00  0.00000000E+00
  0.00000000E+00  0.00000000E+00  0.00000000E+00
  0.00000000E+00  0.00000000E+00  0.00000000E+00
  0.00000000E+00  0.00000000E+00  0.00000000E+00
  0.00000000E+00  0.00000000E+00  0.00000000E+00
  0.00000000E+00  0.00000000E+00  0.00000000E+00
  0.00000000E+00  0.00000000E+00  0.00000000E+00
  0.00000000E+00  0.00000000E+00  0.00000000E+00
  0.00000000E+00  0.00000000E+00  0.00000000E+00
  0.00000000E+00  0.00000000E+00  0.00000000E+00
  0.00000000E+00  0.00000000E+00  0.00000000E+00
  0.00000000E+00  0.00000000E+00  0.00000000E+00
  0.00000000E+00  0.00000000E+00  0.00000000E+00
  0.00000000E+00  0.00000000E+00  0.00000000E+00
  0.00000000E+00  0.00000000E+00  0.00000000E+00
  0.00000000E+00  0.00000000E+00  0.00000000E+00
  0.00000000E+00  0.00000000E+00  0.00000000E+00
  0.00000000E+00  0.00000000E+00  0.00000000E+00
