C N S H                                 
   1.00000000000000     
    40.0000000000000000    0.0000000000000000    0.0000000000000000
     0.0000000000000000   40.0000000000000000    0.0000000000000000
     0.0000000000000000    0.0000000000000000   40.0000000000000000
   C    N    S    H 
    16     3     1    18
Selective dynamics
Direct
  0.4661069516404993  0.5050177756518404  0.4999295851945973   T   T   T
  0.4346496735571561  0.5191722209128381  0.4998504179061015   T   T   T
  0.4057514395626726  0.4988452495608859  0.4997642703671593   T   T   T
  0.4100148430291196  0.4633047824106822  0.4997894657766195   T   T   T
  0.4411225137672964  0.4495482245534691  0.4998571281191277   T   T   T
  0.4706821922316853  0.4694037662720890  0.4999353024138830   T   T   T
  0.5293173255215740  0.4694050922656671  0.5000628575727983   T   T   T
  0.5588751545467342  0.4495460353161785  0.5001285112316874   T   T   T
  0.5899903536497082  0.4633108032198107  0.5002030111870833   T   T   T
  0.5942476513379695  0.4988496436627948  0.5002539312369024   T   T   T
  0.5653486151527999  0.5191773536510639  0.5001809396087701   T   T   T
  0.5338918697961732  0.5050187676144284  0.5000885510030822   T   T   T
  0.6290784101887872  0.5487470100606165  0.5004552903288149   T   T   T
  0.6549031158013047  0.4915560557831877  0.5004145982744126   T   T   T
  0.3450972431432619  0.4915509952707454  0.4995870107196261   T   T   T
  0.3709216015999722  0.5487412126587498  0.4995400400425351   T   T   T
  0.5000023940222049  0.4535041314366898  0.4999927464603137   T   T   T
  0.6250484440370494  0.5125277442103641  0.5003709380769454   T   T   T
  0.3749508703051387  0.5125226201225954  0.4996475874479490   T   T   T
  0.4999994033377002  0.5315975043156591  0.5000081151362464   T   T   T
  0.4444422429741062  0.4226755761696959  0.4998328926536943   T   T   T
  0.5676189479385759  0.5461167130964159  0.5002022894922272   T   T   T
  0.6178233378747541  0.5598666917815642  0.4781836724144192   T   T   T
  0.6175763544776193  0.5597935230312684  0.5226369746098022   T   T   T
  0.6555512312472617  0.5546616110408447  0.5006128338012954   T   T   T
  0.6767698704365828  0.5076155301990729  0.5005619696608113   T   T   T
  0.6557197629126725  0.4756774928352148  0.5226099055806297   T   T   T
  0.6558977112299038  0.4758032223120414  0.4781403144846071   T   T   T
  0.6116248322507465  0.4471381949837493  0.5002669267007626   T   T   T
  0.5555619348993345  0.4226787243454780  0.5001287606974549   T   T   T
  0.3883763912906049  0.4471309887559338  0.4997062048256621   T   T   T
  0.3441276266974348  0.4757456368347865  0.5218240381486550   T   T   T
  0.3442544963879545  0.4757229702272867  0.4773547183596776   T   T   T
  0.3232303661733030  0.5076090073801404  0.4995027718936139   T   T   T
  0.3821814774695317  0.5598753324164093  0.5218017923124172   T   T   T
  0.3824175396347588  0.5597736684076734  0.4773479244989224   T   T   T
  0.3444483940696967  0.5546555595400068  0.4993867371985276   T   T   T
  0.4323774158063432  0.5461125676920540  0.4998419745621779   T   T   T
 
  0.00000000E+00  0.00000000E+00  0.00000000E+00
  0.00000000E+00  0.00000000E+00  0.00000000E+00
  0.00000000E+00  0.00000000E+00  0.00000000E+00
  0.00000000E+00  0.00000000E+00  0.00000000E+00
  0.00000000E+00  0.00000000E+00  0.00000000E+00
  0.00000000E+00  0.00000000E+00  0.00000000E+00
  0.00000000E+00  0.00000000E+00  0.00000000E+00
  0.00000000E+00  0.00000000E+00  0.00000000E+00
  0.00000000E+00  0.00000000E+00  0.00000000E+00
  0.00000000E+00  0.00000000E+00  0.00000000E+00
  0.00000000E+00  0.00000000E+00  0.00000000E+00
  0.00000000E+00  0.00000000E+00  0.00000000E+00
  0.00000000E+00  0.00000000E+00  0.00000000E+00
  0.00000000E+00  0.00000000E+00  0.00000000E+00
  0.00000000E+00  0.00000000E+00  0.00000000E+00
  0.00000000E+00  0.00000000E+00  0.00000000E+00
  0.00000000E+00  0.00000000E+00  0.00000000E+00
  0.00000000E+00  0.00000000E+00  0.00000000E+00
  0.00000000E+00  0.00000000E+00  0.00000000E+00
  0.00000000E+00  0.00000000E+00  0.00000000E+00
  0.00000000E+00  0.00000000E+00  0.00000000E+00
  0.00000000E+00  0.00000000E+00  0.00000000E+00
  0.00000000E+00  0.00000000E+00  0.00000000E+00
  0.00000000E+00  0.00000000E+00  0.00000000E+00
  0.00000000E+00  0.00000000E+00  0.00000000E+00
  0.00000000E+00  0.00000000E+00  0.00000000E+00
  0.00000000E+00  0.00000000E+00  0.00000000E+00
  0.00000000E+00  0.00000000E+00  0.00000000E+00
  0.00000000E+00  0.00000000E+00  0.00000000E+00
  0.00000000E+00  0.00000000E+00  0.00000000E+00
  0.00000000E+00  0.00000000E+00  0.00000000E+00
  0.00000000E+00  0.00000000E+00  0.00000000E+00
  0.00000000E+00  0.00000000E+00  0.00000000E+00
  0.00000000E+00  0.00000000E+00  0.00000000E+00
  0.00000000E+00  0.00000000E+00  0.00000000E+00
  0.00000000E+00  0.00000000E+00  0.00000000E+00
  0.00000000E+00  0.00000000E+00  0.00000000E+00
  0.00000000E+00  0.00000000E+00  0.00000000E+00
