!r2SCANh freq aug-cc-pVTZ d3 TightSCF SlowConv RIJCOSX defgrid2

%pal
nprocs 12
end

%scf
MaxIter 1500
end

%maxcore 5000

!CPCM
%cpcm smd true
SMDsolvent "MeCN"
surfacetype gepol_ses
rsolv 2.19
end 

* xyz 0 1
C           1.33715531650310     -0.00513174975922     -0.21308388211190
C           0.75012660111657      1.25883440193224     -0.16100484309263
C          -0.62265337921045      1.38578140548857     -0.06935743839473
C          -1.43837127968310      0.25491973629834     -0.03058738734960
C          -0.85704107843362     -1.00868489398779     -0.08472570462554
C           0.52445335942213     -1.13044469897253     -0.17432463840683
H           0.96074635988510     -2.12012101701317     -0.21340400100018
H          -1.45985848484122     -1.90315666153470     -0.05713898920724
O          -2.77074837114406      0.48193249387307      0.05903164971983
C          -3.62523556371886     -0.65289821551870      0.10081225149331
H          -4.63620351185025     -0.26311894716201      0.16851804282888
H          -3.52736450228430     -1.25303784564714     -0.80537246015158
H          -3.41580453883177     -1.27177293341164      0.97505903290350
H          -1.07891191878890      2.36559294177842     -0.02718154126006
H           1.36457621554027      2.14858274905037     -0.19241350455495
S           3.09159981118548     -0.23696319583968     -0.33261443367075
H           3.42863266513390      1.06225223042557     -0.27680245311951
*
