C N H                                   
   1.00000000000000     
    25.0000000000000000    0.0000000000000000    0.0000000000000000
     0.0000000000000000   25.0000000000000000    0.0000000000000000
     0.0000000000000000    0.0000000000000000   25.0000000000000000
   C    N    H 
    12     2     8
Selective dynamics
Direct
  0.4872722427526424  0.4913894940585561  0.3595626844732902   T   T   T
  0.4809445690939317  0.4867850821186365  0.5282169227188568   T   T   T
  0.5212772244770454  0.5144481201794048  0.5578400355965624   T   T   T
  0.5184728718071697  0.5126177182555549  0.6143237630514916   T   T   T
  0.4774811417863446  0.4845731551091561  0.6386020946226847   T   T   T
  0.4396764595256414  0.4585680183024305  0.6057788502928845   T   T   T
  0.4829273013950012  0.4882430050051331  0.4699325317363729   T   T   T
  0.5251538923431880  0.5172654011563984  0.4445891564580805   T   T   T
  0.5263678558929412  0.5181847751850062  0.3880180559490332   T   T   T
  0.4472597740510499  0.4639283412339542  0.3883497024717055   T   T   T
  0.5628459399726788  0.5430123742111752  0.5305853621096178   T   T   T
  0.5647403568113818  0.5443432767080586  0.4760142084847335   T   T   T
  0.4408835310506948  0.4593106034480710  0.5525611818550676   T   T   T
  0.4447162432717683  0.4620800077037622  0.4415010178635767   T   T   T
  0.5487171823520248  0.5334281571660254  0.6379762821477454   T   T   T
  0.4740164917270021  0.4822818149157483  0.6820114114419875   T   T   T
  0.4068732690133302  0.4360678527818369  0.6240583186385850   T   T   T
  0.5582210832988452  0.5400337262991693  0.3676040981681056   T   T   T
  0.4869268032038614  0.4911607627984437  0.3159479491358799   T   T   T
  0.4158755124897816  0.4423831512702485  0.3667327722226448   T   T   T
  0.5929451089193444  0.5637422737606098  0.5544742244267870   T   T   T
  0.5964031447643368  0.5661528883326200  0.4553183761343103   T   T   T
 
  0.00000000E+00  0.00000000E+00  0.00000000E+00
  0.00000000E+00  0.00000000E+00  0.00000000E+00
  0.00000000E+00  0.00000000E+00  0.00000000E+00
  0.00000000E+00  0.00000000E+00  0.00000000E+00
  0.00000000E+00  0.00000000E+00  0.00000000E+00
  0.00000000E+00  0.00000000E+00  0.00000000E+00
  0.00000000E+00  0.00000000E+00  0.00000000E+00
  0.00000000E+00  0.00000000E+00  0.00000000E+00
  0.00000000E+00  0.00000000E+00  0.00000000E+00
  0.00000000E+00  0.00000000E+00  0.00000000E+00
  0.00000000E+00  0.00000000E+00  0.00000000E+00
  0.00000000E+00  0.00000000E+00  0.00000000E+00
  0.00000000E+00  0.00000000E+00  0.00000000E+00
  0.00000000E+00  0.00000000E+00  0.00000000E+00
  0.00000000E+00  0.00000000E+00  0.00000000E+00
  0.00000000E+00  0.00000000E+00  0.00000000E+00
  0.00000000E+00  0.00000000E+00  0.00000000E+00
  0.00000000E+00  0.00000000E+00  0.00000000E+00
  0.00000000E+00  0.00000000E+00  0.00000000E+00
  0.00000000E+00  0.00000000E+00  0.00000000E+00
  0.00000000E+00  0.00000000E+00  0.00000000E+00
  0.00000000E+00  0.00000000E+00  0.00000000E+00
