C F N O H                               
   1.00000000000000     
    40.0000000000000000    0.0000000000000000    0.0000000000000000
     0.0000000000000000   40.0000000000000000    0.0000000000000000
     0.0000000000000000    0.0000000000000000   40.0000000000000000
   C    F    N    O    H 
     6     1     1     2     4
Selective dynamics
Direct
  0.4701058286763100  0.4694501606571322  0.4999970831016682   T   T   T
  0.5049029255519457  0.4693765194963859  0.4999983231161593   T   T   T
  0.5228450050825657  0.4999996955960668  0.5000000081177518   T   T   T
  0.5049034112908544  0.5306230188847891  0.5000018349927799   T   T   T
  0.4701059641431300  0.5305501351756590  0.5000026431992524   T   T   T
  0.4533190519731107  0.4999998991617147  0.4999997944975547   T   T   T
  0.4186952501211536  0.5000001808063175  0.4999994685548685   T   T   T
  0.5577991997609004  0.4999996835863101  0.4999999408149876   T   T   T
  0.5738310974810901  0.4716407326990577  0.4999988686062622   T   T   T
  0.5738312686564697  0.5283584174170244  0.5000006363881937   T   T   T
  0.4559983217356631  0.5538837263064380  0.5000041502918435   T   T   T
  0.5188326685574296  0.5539806620976435  0.5000045288449755   T   T   T
  0.5188322666098841  0.4460187916208866  0.4999962668765860   T   T   T
  0.4559977403594786  0.4461163764945653  0.4999954525971120   T   T   T
 
  0.00000000E+00  0.00000000E+00  0.00000000E+00
  0.00000000E+00  0.00000000E+00  0.00000000E+00
  0.00000000E+00  0.00000000E+00  0.00000000E+00
  0.00000000E+00  0.00000000E+00  0.00000000E+00
  0.00000000E+00  0.00000000E+00  0.00000000E+00
  0.00000000E+00  0.00000000E+00  0.00000000E+00
  0.00000000E+00  0.00000000E+00  0.00000000E+00
  0.00000000E+00  0.00000000E+00  0.00000000E+00
  0.00000000E+00  0.00000000E+00  0.00000000E+00
  0.00000000E+00  0.00000000E+00  0.00000000E+00
  0.00000000E+00  0.00000000E+00  0.00000000E+00
  0.00000000E+00  0.00000000E+00  0.00000000E+00
  0.00000000E+00  0.00000000E+00  0.00000000E+00
  0.00000000E+00  0.00000000E+00  0.00000000E+00
