C N H                                   
   1.00000000000000     
    40.0000000000000000    0.0000000000000000    0.0000000000000000
     0.0000000000000000   40.0000000000000000    0.0000000000000000
     0.0000000000000000    0.0000000000000000   40.0000000000000000
   C    N    H 
     6     1     7
Selective dynamics
Direct
  0.4948516910689852  0.4697006599105010  0.5008417867075622   T   T   T
  0.5297216784663611  0.4698734880440477  0.5008516210486037   T   T   T
  0.5475430975914155  0.4999990000000025  0.5008553358413294   T   T   T
  0.5297216784663611  0.5301255119559478  0.5008516210486037   T   T   T
  0.4948526910689827  0.5302993400894991  0.5008417867075622   T   T   T
  0.4767552812289877  0.5000000000000000  0.5007980715830793   T   T   T
  0.4421218058728322  0.5000009999999975  0.5020601104636723   T   T   T
  0.4304736568261496  0.5211807774233118  0.4944094276232766   T   T   T
  0.4304726568261521  0.4788212225766903  0.4944094276232766   T   T   T
  0.4812515127806544  0.5539560879648074  0.5008460029082179   T   T   T
  0.5430987846321059  0.5538962563437900  0.5007884929709921   T   T   T
  0.5747871677582187  0.4999990000000025  0.5008128195946046   T   T   T
  0.5430977846321084  0.4461027436561982  0.5007884929709921   T   T   T
  0.4812495127806594  0.4460439120351926  0.5008460029082179   T   T   T
 
  0.00000000E+00  0.00000000E+00  0.00000000E+00
  0.00000000E+00  0.00000000E+00  0.00000000E+00
  0.00000000E+00  0.00000000E+00  0.00000000E+00
  0.00000000E+00  0.00000000E+00  0.00000000E+00
  0.00000000E+00  0.00000000E+00  0.00000000E+00
  0.00000000E+00  0.00000000E+00  0.00000000E+00
  0.00000000E+00  0.00000000E+00  0.00000000E+00
  0.00000000E+00  0.00000000E+00  0.00000000E+00
  0.00000000E+00  0.00000000E+00  0.00000000E+00
  0.00000000E+00  0.00000000E+00  0.00000000E+00
  0.00000000E+00  0.00000000E+00  0.00000000E+00
  0.00000000E+00  0.00000000E+00  0.00000000E+00
  0.00000000E+00  0.00000000E+00  0.00000000E+00
  0.00000000E+00  0.00000000E+00  0.00000000E+00
