C N H                                   
   1.00000000000000     
    40.0000000000000000    0.0000000000000000    0.0000000000000000
     0.0000000000000000   40.0000000000000000    0.0000000000000000
     0.0000000000000000    0.0000000000000000   40.0000000000000000
   C    N    H 
     7     1     9
Selective dynamics
Direct
  0.4776880230863928  0.5309663492645660  0.5000638317943715   T   T   T
  0.5119885847801718  0.5306091710124238  0.4994268492401078   T   T   T
  0.5301446538477673  0.5000212505529461  0.4994462457993242   T   T   T
  0.5673359950851308  0.5000073985349700  0.4991369257312757   T   T   T
  0.5119967665496524  0.4694192899176312  0.4994249523469039   T   T   T
  0.4776971807926617  0.4690441192634289  0.5000620777056646   T   T   T
  0.4597318714996715  0.5000031075623700  0.5007379354442243   T   T   T
  0.4263258731859134  0.4999966752883074  0.5021138030275613   T   T   T
  0.5776571588172341  0.5226394777564040  0.5106889001188023   T   T   T
  0.5764494647324253  0.4994754431008855  0.4730454850990902   T   T   T
  0.5776139543981770  0.4777884520572103  0.5115204218894118   T   T   T
  0.4130748476351682  0.4783158256050130  0.5027804514499720   T   T   T
  0.4130670637377813  0.5216726391930577  0.5027849657805022   T   T   T
  0.4638723277163361  0.4455638087754532  0.5002554544995371   T   T   T
  0.5257638390657813  0.4458972076446346  0.4991176949783263   T   T   T
  0.5257421534186790  0.5541375617988628  0.4991273543704051   T   T   T
  0.4638502416510419  0.5544422226718425  0.5002666507245055   T   T   T
 
  0.00000000E+00  0.00000000E+00  0.00000000E+00
  0.00000000E+00  0.00000000E+00  0.00000000E+00
  0.00000000E+00  0.00000000E+00  0.00000000E+00
  0.00000000E+00  0.00000000E+00  0.00000000E+00
  0.00000000E+00  0.00000000E+00  0.00000000E+00
  0.00000000E+00  0.00000000E+00  0.00000000E+00
  0.00000000E+00  0.00000000E+00  0.00000000E+00
  0.00000000E+00  0.00000000E+00  0.00000000E+00
  0.00000000E+00  0.00000000E+00  0.00000000E+00
  0.00000000E+00  0.00000000E+00  0.00000000E+00
  0.00000000E+00  0.00000000E+00  0.00000000E+00
  0.00000000E+00  0.00000000E+00  0.00000000E+00
  0.00000000E+00  0.00000000E+00  0.00000000E+00
  0.00000000E+00  0.00000000E+00  0.00000000E+00
  0.00000000E+00  0.00000000E+00  0.00000000E+00
  0.00000000E+00  0.00000000E+00  0.00000000E+00
  0.00000000E+00  0.00000000E+00  0.00000000E+00
