C O S H                                 
   1.00000000000000     
    40.0000000000000000    0.0000000000000000    0.0000000000000000
     0.0000000000000000   40.0000000000000000    0.0000000000000000
     0.0000000000000000    0.0000000000000000   40.0000000000000000
   C    O    S    H 
     7     1     1     8
Selective dynamics
Direct
  0.5512160678088843  0.5016385654510256  0.4969449039187253   T   T   T
  0.5361684822917741  0.5337294769100877  0.4983504176549663   T   T   T
  0.5022763432468956  0.5363838113846021  0.5007946756609046   T   T   T
  0.4821668619593109  0.5071148840434310  0.5017814877069260   T   T   T
  0.4969781788300572  0.4749939625223360  0.5009185102139583   T   T   T
  0.5310109871368162  0.4724472563607568  0.4985702483235364   T   T   T
  0.4265657514355135  0.4846705088031339  0.5037083935012672   T   T   T
  0.4496684376378058  0.5125469862217226  0.5034459943817003   T   T   T
  0.5932457801033884  0.4957737486602133  0.4931315059625158   T   T   T
  0.5427250946098781  0.4480414088912110  0.4978074295452116   T   T   T
  0.4818090665813335  0.4526667618377236  0.5020292123120470   T   T   T
  0.4019807673467402  0.4960293234451724  0.5046186097075019   T   T   T
  0.4295665539195244  0.4700683364309942  0.4809140928067320   T   T   T
  0.4308730189364857  0.4693526983706833  0.5258137189441127   T   T   T
  0.4899808084707746  0.5604584130600985  0.5018551649178503   T   T   T
  0.5515799782171548  0.5559582063686620  0.4974138457142846   T   T   T
  0.6021858214676394  0.5281266512381863  0.4918997887277718   T   T   T
 
  0.00000000E+00  0.00000000E+00  0.00000000E+00
  0.00000000E+00  0.00000000E+00  0.00000000E+00
  0.00000000E+00  0.00000000E+00  0.00000000E+00
  0.00000000E+00  0.00000000E+00  0.00000000E+00
  0.00000000E+00  0.00000000E+00  0.00000000E+00
  0.00000000E+00  0.00000000E+00  0.00000000E+00
  0.00000000E+00  0.00000000E+00  0.00000000E+00
  0.00000000E+00  0.00000000E+00  0.00000000E+00
  0.00000000E+00  0.00000000E+00  0.00000000E+00
  0.00000000E+00  0.00000000E+00  0.00000000E+00
  0.00000000E+00  0.00000000E+00  0.00000000E+00
  0.00000000E+00  0.00000000E+00  0.00000000E+00
  0.00000000E+00  0.00000000E+00  0.00000000E+00
  0.00000000E+00  0.00000000E+00  0.00000000E+00
  0.00000000E+00  0.00000000E+00  0.00000000E+00
  0.00000000E+00  0.00000000E+00  0.00000000E+00
  0.00000000E+00  0.00000000E+00  0.00000000E+00
