C N H                                   
   1.00000000000000     
    40.0000000000000000    0.0000000000000000    0.0000000000000000
     0.0000000000000000   40.0000000000000000    0.0000000000000000
     0.0000000000000000    0.0000000000000000   40.0000000000000000
   C    N    H 
     4     1     9
Selective dynamics
Direct
  0.5127260096561272  0.4698746002509822  0.4996396739603384   T   T   T
  0.5127168565459215  0.5301295865138513  0.4997053610265141   T   T   T
  0.4758204775478276  0.5194312420830371  0.5002686027069956   T   T   T
  0.4758335952891670  0.4805569958077385  0.5003469044419688   T   T   T
  0.5317338068439597  0.5000024848715796  0.5010235994534185   T   T   T
  0.5573091437446251  0.5000055748209675  0.5021248846628268   T   T   T
  0.4636241724647263  0.4707054727341884  0.5228025312089102   T   T   T
  0.4625896592402228  0.4704764262037600  0.4785978256429928   T   T   T
  0.4634799277601473  0.5293775805172984  0.5226091850878163   T   T   T
  0.4627045694321694  0.5294195696497184  0.4783923371857313   T   T   T
  0.5201978984398963  0.5439552375450987  0.4768715127418162   T   T   T
  0.5205256127788758  0.5465570176212324  0.5205270961089923   T   T   T
  0.5201451668227151  0.4561484452042563  0.4767250161558323   T   T   T
  0.5205941034335879  0.4533627661763191  0.5203644696158491   T   T   T
 
  0.00000000E+00  0.00000000E+00  0.00000000E+00
  0.00000000E+00  0.00000000E+00  0.00000000E+00
  0.00000000E+00  0.00000000E+00  0.00000000E+00
  0.00000000E+00  0.00000000E+00  0.00000000E+00
  0.00000000E+00  0.00000000E+00  0.00000000E+00
  0.00000000E+00  0.00000000E+00  0.00000000E+00
  0.00000000E+00  0.00000000E+00  0.00000000E+00
  0.00000000E+00  0.00000000E+00  0.00000000E+00
  0.00000000E+00  0.00000000E+00  0.00000000E+00
  0.00000000E+00  0.00000000E+00  0.00000000E+00
  0.00000000E+00  0.00000000E+00  0.00000000E+00
  0.00000000E+00  0.00000000E+00  0.00000000E+00
  0.00000000E+00  0.00000000E+00  0.00000000E+00
  0.00000000E+00  0.00000000E+00  0.00000000E+00
