C O H                                   
   1.00000000000000     
    40.0000000000000000    0.0000000000000000    0.0000000000000000
     0.0000000000000000   40.0000000000000000    0.0000000000000000
     0.0000000000000000    0.0000000000000000   40.0000000000000000
   C    O    H 
    13     1    10
Selective dynamics
Direct
  0.4384125012505769  0.5299495031178598  0.5061415482450486   T   T   T
  0.4076432856506230  0.5139594621083711  0.5031258630937939   T   T   T
  0.4678958452366463  0.5140184966041088  0.4955226600872485   T   T   T
  0.4658857252414650  0.4819298324940074  0.4813359144819881   T   T   T
  0.4349518183643826  0.4661324957775422  0.4779023516296902   T   T   T
  0.4058575769647434  0.4820061876531931  0.4889531954623198   T   T   T
  0.5001520839460337  0.5327993508393483  0.4981080819515945   T   T   T
  0.5322414971925974  0.5141528783597618  0.5027694705272689   T   T   T
  0.5619080239301218  0.5285597566122896  0.4906053922828144   T   T   T
  0.5925128592824188  0.5127078964386921  0.4955134924429164   T   T   T
  0.5939621148598065  0.4824869094986010  0.5131158076406966   T   T   T
  0.5646872664131392  0.4681859982939143  0.5257028853117579   T   T   T
  0.5339238035591525  0.4838035549372269  0.5204149983868301   T   T   T
  0.5002877474806134  0.5637157580978188  0.4964294846643703   T   T   T
  0.4335697064704104  0.4413733142773219  0.4665802401486790   T   T   T
  0.3817431706570817  0.4695332148538210  0.4864735723109868   T   T   T
  0.4402306861228141  0.5549504083173775  0.5168499787959281   T   T   T
  0.3849649709803228  0.5263487175317554  0.5118029323355322   T   T   T
  0.4884809562787464  0.4695700796952998  0.4724103078979588   T   T   T
  0.5111900527311659  0.4727166249830255  0.5305664660027656   T   T   T
  0.6179543041342134  0.4701433296007143  0.5170561583298233   T   T   T
  0.5657854839731400  0.4448161078899785  0.5396981515232839   T   T   T
  0.5604050821134315  0.5522745018537800  0.4772495378727449   T   T   T
  0.6153554371663479  0.5238676201641789  0.4856715085739737   T   T   T
 
  0.00000000E+00  0.00000000E+00  0.00000000E+00
  0.00000000E+00  0.00000000E+00  0.00000000E+00
  0.00000000E+00  0.00000000E+00  0.00000000E+00
  0.00000000E+00  0.00000000E+00  0.00000000E+00
  0.00000000E+00  0.00000000E+00  0.00000000E+00
  0.00000000E+00  0.00000000E+00  0.00000000E+00
  0.00000000E+00  0.00000000E+00  0.00000000E+00
  0.00000000E+00  0.00000000E+00  0.00000000E+00
  0.00000000E+00  0.00000000E+00  0.00000000E+00
  0.00000000E+00  0.00000000E+00  0.00000000E+00
  0.00000000E+00  0.00000000E+00  0.00000000E+00
  0.00000000E+00  0.00000000E+00  0.00000000E+00
  0.00000000E+00  0.00000000E+00  0.00000000E+00
  0.00000000E+00  0.00000000E+00  0.00000000E+00
  0.00000000E+00  0.00000000E+00  0.00000000E+00
  0.00000000E+00  0.00000000E+00  0.00000000E+00
  0.00000000E+00  0.00000000E+00  0.00000000E+00
  0.00000000E+00  0.00000000E+00  0.00000000E+00
  0.00000000E+00  0.00000000E+00  0.00000000E+00
  0.00000000E+00  0.00000000E+00  0.00000000E+00
  0.00000000E+00  0.00000000E+00  0.00000000E+00
  0.00000000E+00  0.00000000E+00  0.00000000E+00
  0.00000000E+00  0.00000000E+00  0.00000000E+00
  0.00000000E+00  0.00000000E+00  0.00000000E+00
