!PBE0 def2-SV(p) Opt Freq d3 TightSCF SlowConv RIJCOSX defgrid2
 
%pal
nprocs 4
end
 
%scf
MaxIter 1500
end
 
%maxcore 3000
 

 
* xyz 1 2
C     0.4205615   -1.6952320    0.0000416 
C    -0.9497883   -1.8260172   -0.0000553 
C    -1.6881331   -0.6489598   -0.0000246 
C    -1.0444446    0.6242701    0.0000773 
C     0.3166016    0.7533385    0.0001355 
C     1.0812927   -0.4318230    0.0001141 
C     2.5121547   -0.4366095    0.0001879 
C     3.3250587    0.6512067   -0.0002201 
C     4.7901849    0.5680244   -0.0000970 
H     5.1504402   -0.4571168    0.0006311 
H     5.1885447    1.0975989   -0.8688617 
H     5.1884877    1.0988438    0.8679285 
H     2.9119959    1.6501064   -0.0007338 
H     2.9781094   -1.4135359    0.0005474 
H     0.7676851    1.7297761    0.0002426 
O    -1.9957900    1.5764825    0.0001167 
C    -3.2399420    0.9202413    0.0000530 
H    -3.8132533    1.1965319   -0.8976795 
H    -3.8132681    1.1963905    0.8978211 
O    -3.0026534   -0.4712860   -0.0000504 
H    -1.4376140   -2.7862253   -0.0001343 
H     1.0274299   -2.5877172    0.0000340
*
