C H                                     
   1.00000000000000     
    40.0000000000000000    0.0000000000000000    0.0000000000000000
     0.0000000000000000   40.0000000000000000    0.0000000000000000
     0.0000000000000000    0.0000000000000000   40.0000000000000000
   C    H 
    14    10
Selective dynamics
Direct
  0.6032129026965263  0.5300994386685959  0.5000044620576959   T   T   T
  0.6207054692124617  0.5000018962508900  0.4999941724247412   T   T   T
  0.6032156547481475  0.4699020951187989  0.4999891511178305   T   T   T
  0.5685384231630777  0.4697532619911463  0.4999939356396825   T   T   T
  0.5505960989382780  0.4999986196165859  0.5000034101723202   T   T   T
  0.5685356716590779  0.5302447734138148  0.5000087702913615   T   T   T
  0.5151853325676229  0.4999974395399683  0.5000043729148006   T   T   T
  0.4848150434895411  0.4999973508684627  0.5000054644115738   T   T   T
  0.4494041624146860  0.4999982054786050  0.5000054699113521   T   T   T
  0.4314615544479506  0.4697539162303585  0.5000116051512991   T   T   T
  0.3967850747537146  0.4699018362006125  0.5000081543544858   T   T   T
  0.3792942382454239  0.5000010413680758  0.4999967604110552   T   T   T
  0.3967866863280720  0.5300990807325239  0.4999918534420478   T   T   T
  0.4314648314678287  0.5302454149789808  0.4999961618400084   T   T   T
  0.5549235891791962  0.5536583442217042  0.5000143454024657   T   T   T
  0.4450757401336454  0.5536576911850219  0.4999915283397260   T   T   T
  0.3833150456715814  0.5536147942125527  0.4999849746681666   T   T   T
  0.3521875516098270  0.5000027053142120  0.4999938176894081   T   T   T
  0.3833101321501503  0.4463880418979841  0.5000104240895806   T   T   T
  0.4450713825232656  0.4463382096030275  0.5000175898668506   T   T   T
  0.5549286753458270  0.4463393020393455  0.4999896641819555   T   T   T
  0.6166895977844079  0.4463881654757880  0.4999835274789939   T   T   T
  0.6478118255806292  0.5000033607672884  0.4999935360656979   T   T   T
  0.6166843158890785  0.5536150148256631  0.5000078480768845   T   T   T
 
  0.00000000E+00  0.00000000E+00  0.00000000E+00
  0.00000000E+00  0.00000000E+00  0.00000000E+00
  0.00000000E+00  0.00000000E+00  0.00000000E+00
  0.00000000E+00  0.00000000E+00  0.00000000E+00
  0.00000000E+00  0.00000000E+00  0.00000000E+00
  0.00000000E+00  0.00000000E+00  0.00000000E+00
  0.00000000E+00  0.00000000E+00  0.00000000E+00
  0.00000000E+00  0.00000000E+00  0.00000000E+00
  0.00000000E+00  0.00000000E+00  0.00000000E+00
  0.00000000E+00  0.00000000E+00  0.00000000E+00
  0.00000000E+00  0.00000000E+00  0.00000000E+00
  0.00000000E+00  0.00000000E+00  0.00000000E+00
  0.00000000E+00  0.00000000E+00  0.00000000E+00
  0.00000000E+00  0.00000000E+00  0.00000000E+00
  0.00000000E+00  0.00000000E+00  0.00000000E+00
  0.00000000E+00  0.00000000E+00  0.00000000E+00
  0.00000000E+00  0.00000000E+00  0.00000000E+00
  0.00000000E+00  0.00000000E+00  0.00000000E+00
  0.00000000E+00  0.00000000E+00  0.00000000E+00
  0.00000000E+00  0.00000000E+00  0.00000000E+00
  0.00000000E+00  0.00000000E+00  0.00000000E+00
  0.00000000E+00  0.00000000E+00  0.00000000E+00
  0.00000000E+00  0.00000000E+00  0.00000000E+00
  0.00000000E+00  0.00000000E+00  0.00000000E+00
