C O H                                   
   1.00000000000000     
    25.0000000000000000    0.0000000000000000    0.0000000000000000
     0.0000000000000000   25.0000000000000000    0.0000000000000000
     0.0000000000000000    0.0000000000000000   25.0000000000000000
   C    O    H 
    12     2    10
Selective dynamics
Direct
  0.4976001246938478  0.4803764240994910  0.4442885099187225   T   T   T
  0.4987705145024256  0.5380808955490595  0.4497465095370669   T   T   T
  0.5011299232649180  0.5630826165387158  0.4997091393063632   T   T   T
  0.5023646014493761  0.5328688623746910  0.5491988555788739   T   T   T
  0.5011684855376052  0.4741819749548286  0.5448087047087021   T   T   T
  0.4988595774843309  0.4487250737714751  0.4938674942014257   T   T   T
  0.4977497345810590  0.3923012505309023  0.4915122998974055   T   T   T
  0.4988378655520903  0.3614741217343346  0.5377433388036718   T   T   T
  0.5011543826914815  0.3866527583247254  0.5881654861458040   T   T   T
  0.5022736161595818  0.4421317474871954  0.5913406650288141   T   T   T
  0.5024569652930810  0.6231709913866308  0.5034075997310928   T   T   T
  0.4975261873555608  0.5710634755380786  0.3993830110348607   T   T   T
  0.5043504338537828  0.5555635241543365  0.5951214804584000   T   T   T
  0.4956200768680865  0.4572410803443835  0.3985795636997832   T   T   T
  0.5040405369060144  0.4622494947992885  0.6300327574109811   T   T   T
  0.5020794251212565  0.3625436674005248  0.6245756209989151   T   T   T
  0.4979856348425494  0.3178785306909884  0.5351092480831328   T   T   T
  0.4959875955992539  0.3735039325195241  0.4521643032899932   T   T   T
  0.4667772529864146  0.6414443498705034  0.4850244103834169   T   T   T
  0.5044129134226164  0.6355942603632914  0.5453947608833420   T   T   T
  0.5372081122933404  0.6400341801297956  0.4821352916709079   T   T   T
  0.5332167097647672  0.5967200156324936  0.3958519830723668   T   T   T
  0.4956255307730251  0.5448874664283523  0.3642829008276051   T   T   T
  0.4628027990035296  0.5982303053763875  0.3985560653283392   T   T   T
 
  0.00000000E+00  0.00000000E+00  0.00000000E+00
  0.00000000E+00  0.00000000E+00  0.00000000E+00
  0.00000000E+00  0.00000000E+00  0.00000000E+00
  0.00000000E+00  0.00000000E+00  0.00000000E+00
  0.00000000E+00  0.00000000E+00  0.00000000E+00
  0.00000000E+00  0.00000000E+00  0.00000000E+00
  0.00000000E+00  0.00000000E+00  0.00000000E+00
  0.00000000E+00  0.00000000E+00  0.00000000E+00
  0.00000000E+00  0.00000000E+00  0.00000000E+00
  0.00000000E+00  0.00000000E+00  0.00000000E+00
  0.00000000E+00  0.00000000E+00  0.00000000E+00
  0.00000000E+00  0.00000000E+00  0.00000000E+00
  0.00000000E+00  0.00000000E+00  0.00000000E+00
  0.00000000E+00  0.00000000E+00  0.00000000E+00
  0.00000000E+00  0.00000000E+00  0.00000000E+00
  0.00000000E+00  0.00000000E+00  0.00000000E+00
  0.00000000E+00  0.00000000E+00  0.00000000E+00
  0.00000000E+00  0.00000000E+00  0.00000000E+00
  0.00000000E+00  0.00000000E+00  0.00000000E+00
  0.00000000E+00  0.00000000E+00  0.00000000E+00
  0.00000000E+00  0.00000000E+00  0.00000000E+00
  0.00000000E+00  0.00000000E+00  0.00000000E+00
  0.00000000E+00  0.00000000E+00  0.00000000E+00
  0.00000000E+00  0.00000000E+00  0.00000000E+00
