C O H                                   
   1.00000000000000     
    40.0000000000000000    0.0000000000000000    0.0000000000000000
     0.0000000000000000   40.0000000000000000    0.0000000000000000
     0.0000000000000000    0.0000000000000000   40.0000000000000000
   C    O    H 
     9     1    10
Selective dynamics
Direct
  0.5068271307390231  0.5241191515779884  0.4997512309277036   T   T   T
  0.4720816700877096  0.5243900224523523  0.4995364667045609   T   T   T
  0.4530211783399417  0.4946202320191017  0.4994710313340029   T   T   T
  0.4711970806060509  0.4642103108235418  0.4996829021178498   T   T   T
  0.5058050289503877  0.4633871556831397  0.4998790318546698   T   T   T
  0.5254648707922643  0.4934352347874900  0.4999440089320190   T   T   T
  0.5613715559578074  0.4917847020633650  0.5000579057331901   T   T   T
  0.5810668643013985  0.5244458751823792  0.5000814222816983   T   T   T
  0.4154513754628545  0.4949886257616926  0.5004855477777982   T   T   T
  0.5776832657563359  0.4641020706027728  0.5001419563597332   T   T   T
  0.6078287187805641  0.5184308744614292  0.5002082514400250   T   T   T
  0.5755350998545117  0.5401611172746283  0.5221243458564976   T   T   T
  0.5757292186666066  0.5400884999578411  0.4779385347488732   T   T   T
  0.5192387974375571  0.4396352329917341  0.4998257862212886   T   T   T
  0.4572730274590418  0.4406067776900206  0.4995684599230082   T   T   T
  0.4053780153408923  0.4919759410106119  0.5260996205315357   T   T   T
  0.4052794707332185  0.5186367791595162  0.4907583027973737   T   T   T
  0.4046584490936351  0.4745520077872211  0.4854908498405703   T   T   T
  0.4590026615273854  0.5484533318200518  0.4993546498819770   T   T   T
  0.5201065201128210  0.5479770568930982  0.4996016947356131   T   T   T
 
  0.00000000E+00  0.00000000E+00  0.00000000E+00
  0.00000000E+00  0.00000000E+00  0.00000000E+00
  0.00000000E+00  0.00000000E+00  0.00000000E+00
  0.00000000E+00  0.00000000E+00  0.00000000E+00
  0.00000000E+00  0.00000000E+00  0.00000000E+00
  0.00000000E+00  0.00000000E+00  0.00000000E+00
  0.00000000E+00  0.00000000E+00  0.00000000E+00
  0.00000000E+00  0.00000000E+00  0.00000000E+00
  0.00000000E+00  0.00000000E+00  0.00000000E+00
  0.00000000E+00  0.00000000E+00  0.00000000E+00
  0.00000000E+00  0.00000000E+00  0.00000000E+00
  0.00000000E+00  0.00000000E+00  0.00000000E+00
  0.00000000E+00  0.00000000E+00  0.00000000E+00
  0.00000000E+00  0.00000000E+00  0.00000000E+00
  0.00000000E+00  0.00000000E+00  0.00000000E+00
  0.00000000E+00  0.00000000E+00  0.00000000E+00
  0.00000000E+00  0.00000000E+00  0.00000000E+00
  0.00000000E+00  0.00000000E+00  0.00000000E+00
  0.00000000E+00  0.00000000E+00  0.00000000E+00
  0.00000000E+00  0.00000000E+00  0.00000000E+00
