C H                                     
   1.00000000000000     
    40.0000000000000000    0.0000000000000000    0.0000000000000000
     0.0000000000000000   40.0000000000000000    0.0000000000000000
     0.0000000000000000    0.0000000000000000   40.0000000000000000
   C    H 
    10    12
Selective dynamics
Direct
  0.5268734549857237  0.4685642702565228  0.5000025938773840   T   T   T
  0.5361052593430897  0.5025206339427670  0.5000026197090849   T   T   T
  0.5102998150609995  0.5264407126841507  0.5000015432572187   T   T   T
  0.4764166425752606  0.5176888558930685  0.5000007021367839   T   T   T
  0.4675737372936729  0.4834705045602936  0.5000016169962105   T   T   T
  0.4932595184860653  0.4595063347672193  0.5000029431734924   T   T   T
  0.4314860720422941  0.4728533546722766  0.5000005786248338   T   T   T
  0.4498980488994384  0.5443948245389530  0.4999991390254172   T   T   T
  0.5709599993344703  0.5140662604954532  0.5000029845861473   T   T   T
  0.5987126208724574  0.4950805357008109  0.4999899242945427   T   T   T
  0.4865596570141909  0.4330247485921274  0.5000053685850666   T   T   T
  0.4291830402652372  0.4455155938838570  0.5000024368384063   T   T   T
  0.4181623111053467  0.4825838307092746  0.4779494030788964   T   T   T
  0.4181594895837654  0.4825873773582747  0.5220484313662515   T   T   T
  0.4335455548047853  0.5422821074444865  0.5220533704137656   T   T   T
  0.4335437285862834  0.5422771562532417  0.4779470376425716   T   T   T
  0.4610485314145860  0.5694611834493124  0.4999957501461835   T   T   T
  0.5170151289497327  0.5529479252558159  0.5000014601392430   T   T   T
  0.5978694101870788  0.4677971009193788  0.4999780422436828   T   T   T
  0.6234330278177835  0.5065670282087272  0.4999924955306485   T   T   T
  0.5739332666198859  0.5412979739403689  0.5000144022164948   T   T   T
  0.5459606847578691  0.4490726864736521  0.5000071561176952   T   T   T
 
  0.00000000E+00  0.00000000E+00  0.00000000E+00
  0.00000000E+00  0.00000000E+00  0.00000000E+00
  0.00000000E+00  0.00000000E+00  0.00000000E+00
  0.00000000E+00  0.00000000E+00  0.00000000E+00
  0.00000000E+00  0.00000000E+00  0.00000000E+00
  0.00000000E+00  0.00000000E+00  0.00000000E+00
  0.00000000E+00  0.00000000E+00  0.00000000E+00
  0.00000000E+00  0.00000000E+00  0.00000000E+00
  0.00000000E+00  0.00000000E+00  0.00000000E+00
  0.00000000E+00  0.00000000E+00  0.00000000E+00
  0.00000000E+00  0.00000000E+00  0.00000000E+00
  0.00000000E+00  0.00000000E+00  0.00000000E+00
  0.00000000E+00  0.00000000E+00  0.00000000E+00
  0.00000000E+00  0.00000000E+00  0.00000000E+00
  0.00000000E+00  0.00000000E+00  0.00000000E+00
  0.00000000E+00  0.00000000E+00  0.00000000E+00
  0.00000000E+00  0.00000000E+00  0.00000000E+00
  0.00000000E+00  0.00000000E+00  0.00000000E+00
  0.00000000E+00  0.00000000E+00  0.00000000E+00
  0.00000000E+00  0.00000000E+00  0.00000000E+00
  0.00000000E+00  0.00000000E+00  0.00000000E+00
  0.00000000E+00  0.00000000E+00  0.00000000E+00
