C O H                                   
   1.00000000000000     
    40.0000000000000000    0.0000000000000000    0.0000000000000000
     0.0000000000000000   40.0000000000000000    0.0000000000000000
     0.0000000000000000    0.0000000000000000   40.0000000000000000
   C    O    H 
     7     1     8
Selective dynamics
Direct
  0.4981525749099447  0.5243684879937689  0.4999990000000025   T   T   T
  0.4642765837039775  0.5302031639660569  0.4999990000000025   T   T   T
  0.4412807457559751  0.5031070946376559  0.5000000000000000   T   T   T
  0.4525323043470522  0.4696340233592480  0.5000009999999975   T   T   T
  0.4862651270286307  0.4630777141717104  0.5000009999999975   T   T   T
  0.5094515559056987  0.4905047097544255  0.5000000000000000   T   T   T
  0.5678012271306514  0.5063029920745663  0.5000000000000000   T   T   T
  0.5411769220177831  0.4814888155329839  0.5000000000000000   T   T   T
  0.5659816848896710  0.5217114636084546  0.4773846020173949   T   T   T
  0.5659806848896736  0.5217114636084546  0.5226153979826051   T   T   T
  0.5909025013787925  0.4918001232283657  0.5000009999999975   T   T   T
  0.4963453612200368  0.4377831912196726  0.5000020000000021   T   T   T
  0.4345548489129030  0.4492035526397586  0.5000020000000021   T   T   T
  0.4145517972027974  0.5083569694045167  0.5000000000000000   T   T   T
  0.4548730184377376  0.5557471086484256  0.4999979999999979   T   T   T
  0.5158730622686534  0.5449991261519358  0.4999979999999979   T   T   T
 
  0.00000000E+00  0.00000000E+00  0.00000000E+00
  0.00000000E+00  0.00000000E+00  0.00000000E+00
  0.00000000E+00  0.00000000E+00  0.00000000E+00
  0.00000000E+00  0.00000000E+00  0.00000000E+00
  0.00000000E+00  0.00000000E+00  0.00000000E+00
  0.00000000E+00  0.00000000E+00  0.00000000E+00
  0.00000000E+00  0.00000000E+00  0.00000000E+00
  0.00000000E+00  0.00000000E+00  0.00000000E+00
  0.00000000E+00  0.00000000E+00  0.00000000E+00
  0.00000000E+00  0.00000000E+00  0.00000000E+00
  0.00000000E+00  0.00000000E+00  0.00000000E+00
  0.00000000E+00  0.00000000E+00  0.00000000E+00
  0.00000000E+00  0.00000000E+00  0.00000000E+00
  0.00000000E+00  0.00000000E+00  0.00000000E+00
  0.00000000E+00  0.00000000E+00  0.00000000E+00
  0.00000000E+00  0.00000000E+00  0.00000000E+00
