C N H                                   
   1.00000000000000     
    40.0000000000000000    0.0000000000000000    0.0000000000000000
     0.0000000000000000   40.0000000000000000    0.0000000000000000
     0.0000000000000000    0.0000000000000000   40.0000000000000000
   C    N    H 
    12     1    11
Selective dynamics
Direct
  0.4410962568611616  0.4694660228015806  0.5112411132290358   T   T   T
  0.4091374331570945  0.4829372166739094  0.5101161584678844   T   T   T
  0.4038247953785823  0.5150917487568840  0.4977579124259391   T   T   T
  0.4310802466375041  0.5333627230307219  0.4860815998045260   T   T   T
  0.4631977570173162  0.5200767806230547  0.4867721891445976   T   T   T
  0.4686555385871677  0.4879036689631315  0.4996579602769942   T   T   T
  0.5313444614128325  0.4879036689631315  0.5003410397230013   T   T   T
  0.5368022429826839  0.5200767806230547  0.5132268108554049   T   T   T
  0.5689197533624961  0.5333627230307219  0.5139184001954742   T   T   T
  0.5961752046214176  0.5150907487568865  0.5022420875740607   T   T   T
  0.5908625668429056  0.4829362166739049  0.4898848415321201   T   T   T
  0.5589037431388384  0.4694650228015831  0.4887598867709614   T   T   T
  0.5000000000000000  0.4728024438415411  0.5000000000000000   T   T   T
  0.5549062710396964  0.4445107810593558  0.4788796053507287   T   T   T
  0.6117518939858890  0.4682298540113610  0.4807822313315573   T   T   T
  0.6211262068779475  0.5256619494505667  0.5028539737021428   T   T   T
  0.5726399185661729  0.5582340443672804  0.5241018503231536   T   T   T
  0.5161183786790245  0.5343356881433192  0.5233086785727227   T   T   T
  0.5000000000000000  0.4475776003961405  0.5000000000000000   T   T   T
  0.4838816213209754  0.5343356881433192  0.4766903214272727   T   T   T
  0.4273600814338271  0.5582340443672804  0.4758981496768464   T   T   T
  0.3788737931220523  0.5256629494505641  0.4971470262978545   T   T   T
  0.3882481060141110  0.4682308540113656  0.5192187686684404   T   T   T
  0.4450937289603039  0.4445107810593558  0.5211203946492714   T   T   T
 
  0.00000000E+00  0.00000000E+00  0.00000000E+00
  0.00000000E+00  0.00000000E+00  0.00000000E+00
  0.00000000E+00  0.00000000E+00  0.00000000E+00
  0.00000000E+00  0.00000000E+00  0.00000000E+00
  0.00000000E+00  0.00000000E+00  0.00000000E+00
  0.00000000E+00  0.00000000E+00  0.00000000E+00
  0.00000000E+00  0.00000000E+00  0.00000000E+00
  0.00000000E+00  0.00000000E+00  0.00000000E+00
  0.00000000E+00  0.00000000E+00  0.00000000E+00
  0.00000000E+00  0.00000000E+00  0.00000000E+00
  0.00000000E+00  0.00000000E+00  0.00000000E+00
  0.00000000E+00  0.00000000E+00  0.00000000E+00
  0.00000000E+00  0.00000000E+00  0.00000000E+00
  0.00000000E+00  0.00000000E+00  0.00000000E+00
  0.00000000E+00  0.00000000E+00  0.00000000E+00
  0.00000000E+00  0.00000000E+00  0.00000000E+00
  0.00000000E+00  0.00000000E+00  0.00000000E+00
  0.00000000E+00  0.00000000E+00  0.00000000E+00
  0.00000000E+00  0.00000000E+00  0.00000000E+00
  0.00000000E+00  0.00000000E+00  0.00000000E+00
  0.00000000E+00  0.00000000E+00  0.00000000E+00
  0.00000000E+00  0.00000000E+00  0.00000000E+00
  0.00000000E+00  0.00000000E+00  0.00000000E+00
  0.00000000E+00  0.00000000E+00  0.00000000E+00
