C N O H                                 
   1.00000000000000     
    40.0000000000000000    0.0000000000000000    0.0000000000000000
     0.0000000000000000   40.0000000000000000    0.0000000000000000
     0.0000000000000000    0.0000000000000000   40.0000000000000000
   C    N    O    H 
     7     1     1     7
Selective dynamics
Direct
  0.5160741538939533  0.4676253499589293  0.5000000000000000   T   T   T
  0.5499740007374143  0.4740703008804559  0.5000000000000000   T   T   T
  0.5614024324218150  0.5074687463699021  0.5000000000000000   T   T   T
  0.5387302680541026  0.5345151139203494  0.5000000000000000   T   T   T
  0.5047755916802572  0.5285189824096577  0.5000000000000000   T   T   T
  0.4928075392800579  0.4947258323285553  0.5000000000000000   T   T   T
  0.4582237244778042  0.4868088316618540  0.5000000000000000   T   T   T
  0.4357550460221375  0.5113394361629133  0.5000000000000000   T   T   T
  0.4047113954407564  0.4987821598032838  0.5000009999999975   T   T   T
  0.3895828331910423  0.5183064937302362  0.5000009999999975   T   T   T
  0.4500452142824614  0.4606738678026048  0.5000000000000000   T   T   T
  0.4869203085374210  0.5490568064690962  0.5000000000000000   T   T   T
  0.5482168846633115  0.5600404903093406  0.5000000000000000   T   T   T
  0.5882093871888330  0.5124213450337436  0.4999990000000025   T   T   T
  0.5679175580392979  0.4535873903016210  0.4999990000000025   T   T   T
  0.5066546620893391  0.4420588528574569  0.5000000000000000   T   T   T
 
  0.00000000E+00  0.00000000E+00  0.00000000E+00
  0.00000000E+00  0.00000000E+00  0.00000000E+00
  0.00000000E+00  0.00000000E+00  0.00000000E+00
  0.00000000E+00  0.00000000E+00  0.00000000E+00
  0.00000000E+00  0.00000000E+00  0.00000000E+00
  0.00000000E+00  0.00000000E+00  0.00000000E+00
  0.00000000E+00  0.00000000E+00  0.00000000E+00
  0.00000000E+00  0.00000000E+00  0.00000000E+00
  0.00000000E+00  0.00000000E+00  0.00000000E+00
  0.00000000E+00  0.00000000E+00  0.00000000E+00
  0.00000000E+00  0.00000000E+00  0.00000000E+00
  0.00000000E+00  0.00000000E+00  0.00000000E+00
  0.00000000E+00  0.00000000E+00  0.00000000E+00
  0.00000000E+00  0.00000000E+00  0.00000000E+00
  0.00000000E+00  0.00000000E+00  0.00000000E+00
  0.00000000E+00  0.00000000E+00  0.00000000E+00
