!r2SCAN freq aug-cc-pVTZ d3 TightSCF SlowConv RIJCOSX defgrid2

%pal
nprocs 12
end

%scf
MaxIter 1500
end

%maxcore 5000

!CPCM
%cpcm smd true
SMDsolvent "MeCN"
surfacetype gepol_ses
rsolv 2.19
end 

* xyz 0 1
  C           0.69223565883929     -1.22372108521042     -0.00212997522577
  C          -0.69021323752825     -1.22103168488702     -0.00192896053279
  C          -1.34685179180457      0.00421360926895     -0.00014458587691
  C          -0.66817274061139      1.21452254850576      0.00149352351480
  C           0.71763163854455      1.19363534423096      0.00076882871966
  C           1.40783909225898     -0.02194662131272     -0.00089862052549
  C           2.90588037661378     -0.08083143284803     -0.00127992148883
  O           3.47192645125207     -1.16235898891684      0.00146087820712
  C           3.66983539756599      1.20732059295947     -0.00480999655826
  H           3.41615460911146      1.80584672017026      0.87370054475109
  H           4.73672186026474      0.99768695418682     -0.00806766060871
  H           3.41032492247274      1.80485199502162     -0.88214544601605
  H           1.25375198552428      2.13275851676452      0.00106597786398
  H          -1.21422873350496      2.14653798831762      0.00355669732668
  N          -2.81425423146683      0.01850606550642      0.00081696599773
  O          -3.37937334604208      1.10676802368496      0.00405183552271
  O          -3.39953817343261     -1.05905831694513     -0.00132046843470
  H          -1.25489379115244     -2.14202714672484     -0.00268736190237
  H           1.23616595309524     -2.15905958177234     -0.00353695473387
*
