C O H                                   
   1.00000000000000     
    40.0000000000000000    0.0000000000000000    0.0000000000000000
     0.0000000000000000   40.0000000000000000    0.0000000000000000
     0.0000000000000000    0.0000000000000000   40.0000000000000000
   C    O    H 
    14     1    12
Selective dynamics
Direct
  0.4566775765745259  0.5339496298901470  0.4917908334827067   T   T   T
  0.4384494574307513  0.5047348386740313  0.4989381997740633   T   T   T
  0.4562150863589712  0.4752476294268441  0.5060106117483910   T   T   T
  0.4910211050019810  0.4749980203565803  0.5059379978998128   T   T   T
  0.5093488043815539  0.5041974989713977  0.4989023563565035   T   T   T
  0.4913815645785530  0.5337082577461378  0.4918375313746620   T   T   T
  0.5463329078474617  0.5039950917004338  0.4989085066366731   T   T   T
  0.5642848558733710  0.4761876267640656  0.4869694127681701   T   T   T
  0.5991642198174039  0.4761327059509175  0.4868365211843935   T   T   T
  0.6168608978336739  0.5037819400147319  0.4988110547134553   T   T   T
  0.5993628367166870  0.5315440721812128  0.5108286219251051   T   T   T
  0.5644934695183960  0.5317030333082117  0.5107830512141946   T   T   T
  0.4011197541294670  0.5061387040826665  0.4987909912534654   T   T   T
  0.3817176277299236  0.4746021457827486  0.5066472030781904   T   T   T
  0.3863320620993688  0.5324942125419752  0.4924113473341193   T   T   T
  0.5049653708171963  0.5565349383013558  0.4856830685509606   T   T   T
  0.5511225857623001  0.5533165976355480  0.5206825538440404   T   T   T
  0.6129393051724007  0.5531579950770020  0.5204318753955948   T   T   T
  0.6441264301858065  0.5037215551946437  0.4987524763013746   T   T   T
  0.6125955354596521  0.4544840458862146  0.4771077384086144   T   T   T
  0.5507574299617217  0.4546990051620364  0.4770039939715516   T   T   T
  0.5042324524771995  0.4519523101813687  0.5120853633044179   T   T   T
  0.4428901217365007  0.4522128999716247  0.5119072282255475   T   T   T
  0.3549167404061547  0.4800136388121366  0.5054994454573063   T   T   T
  0.3877575911230958  0.4546250006378298  0.4887286693470992   T   T   T
  0.3880544003625739  0.4651198002362129  0.5316759358992940   T   T   T
  0.4428798106433383  0.5567478055119299  0.4860384105502904   T   T   T
 
  0.00000000E+00  0.00000000E+00  0.00000000E+00
  0.00000000E+00  0.00000000E+00  0.00000000E+00
  0.00000000E+00  0.00000000E+00  0.00000000E+00
  0.00000000E+00  0.00000000E+00  0.00000000E+00
  0.00000000E+00  0.00000000E+00  0.00000000E+00
  0.00000000E+00  0.00000000E+00  0.00000000E+00
  0.00000000E+00  0.00000000E+00  0.00000000E+00
  0.00000000E+00  0.00000000E+00  0.00000000E+00
  0.00000000E+00  0.00000000E+00  0.00000000E+00
  0.00000000E+00  0.00000000E+00  0.00000000E+00
  0.00000000E+00  0.00000000E+00  0.00000000E+00
  0.00000000E+00  0.00000000E+00  0.00000000E+00
  0.00000000E+00  0.00000000E+00  0.00000000E+00
  0.00000000E+00  0.00000000E+00  0.00000000E+00
  0.00000000E+00  0.00000000E+00  0.00000000E+00
  0.00000000E+00  0.00000000E+00  0.00000000E+00
  0.00000000E+00  0.00000000E+00  0.00000000E+00
  0.00000000E+00  0.00000000E+00  0.00000000E+00
  0.00000000E+00  0.00000000E+00  0.00000000E+00
  0.00000000E+00  0.00000000E+00  0.00000000E+00
  0.00000000E+00  0.00000000E+00  0.00000000E+00
  0.00000000E+00  0.00000000E+00  0.00000000E+00
  0.00000000E+00  0.00000000E+00  0.00000000E+00
  0.00000000E+00  0.00000000E+00  0.00000000E+00
  0.00000000E+00  0.00000000E+00  0.00000000E+00
  0.00000000E+00  0.00000000E+00  0.00000000E+00
  0.00000000E+00  0.00000000E+00  0.00000000E+00
