C N H                                   
   1.00000000000000     
    40.0000000000000000    0.0000000000000000    0.0000000000000000
     0.0000000000000000   40.0000000000000000    0.0000000000000000
     0.0000000000000000    0.0000000000000000   40.0000000000000000
   C    N    H 
     6     1     7
Selective dynamics
Direct
  0.4948522066498564  0.4697334610019218  0.5008257488579800   T   T   T
  0.5297078782269991  0.4698887244326935  0.5008591133844139   T   T   T
  0.5475005705119008  0.4999990000000025  0.5008773533590063   T   T   T
  0.5297078782269991  0.5301102755673019  0.5008591133844139   T   T   T
  0.4948532066498539  0.5302665389980781  0.5008257488579800   T   T   T
  0.4768266175617157  0.5000000000000000  0.5007879638486967   T   T   T
  0.4420812810701882  0.5000009999999975  0.5022207934302905   T   T   T
  0.4304672666602249  0.5211129259104702  0.4943443180221406   T   T   T
  0.4304662666602274  0.4788890740895320  0.4943443180221406   T   T   T
  0.4812818911558416  0.5539580269145340  0.5008364494267792   T   T   T
  0.5431133230108058  0.5538788115260678  0.5007862445439264   T   T   T
  0.5747483994487055  0.4999990000000025  0.5008111408915169   T   T   T
  0.5431123230108084  0.4461201884739209  0.5007862445439264   T   T   T
  0.4812798911558467  0.4460419730854661  0.5008364494267792   T   T   T
 
  0.00000000E+00  0.00000000E+00  0.00000000E+00
  0.00000000E+00  0.00000000E+00  0.00000000E+00
  0.00000000E+00  0.00000000E+00  0.00000000E+00
  0.00000000E+00  0.00000000E+00  0.00000000E+00
  0.00000000E+00  0.00000000E+00  0.00000000E+00
  0.00000000E+00  0.00000000E+00  0.00000000E+00
  0.00000000E+00  0.00000000E+00  0.00000000E+00
  0.00000000E+00  0.00000000E+00  0.00000000E+00
  0.00000000E+00  0.00000000E+00  0.00000000E+00
  0.00000000E+00  0.00000000E+00  0.00000000E+00
  0.00000000E+00  0.00000000E+00  0.00000000E+00
  0.00000000E+00  0.00000000E+00  0.00000000E+00
  0.00000000E+00  0.00000000E+00  0.00000000E+00
  0.00000000E+00  0.00000000E+00  0.00000000E+00
