C N H                                   
   1.00000000000000     
    40.0000000000000000    0.0000000000000000    0.0000000000000000
     0.0000000000000000   40.0000000000000000    0.0000000000000000
     0.0000000000000000    0.0000000000000000   40.0000000000000000
   C    N    H 
     6     1     7
Selective dynamics
Direct
  0.4948407004549296  0.4696827388862417  0.5008408051026692   T   T   T
  0.5297280762683769  0.4698531033098305  0.5008471302049031   T   T   T
  0.5475587291042245  0.4999990000000025  0.5008464720747199   T   T   T
  0.5297280762683769  0.5301458966901649  0.5008471302049031   T   T   T
  0.4948417004549270  0.5303172611137583  0.5008408051026692   T   T   T
  0.4767470419913025  0.5000000000000000  0.5007906404895905   T   T   T
  0.4420982295308420  0.5000009999999975  0.5020628560462796   T   T   T
  0.4304780732970102  0.5212136720058993  0.4944067703505723   T   T   T
  0.4304770732970127  0.4787883279941028  0.4944067703505723   T   T   T
  0.4812246655720074  0.5539987277450464  0.5008575174064163   T   T   T
  0.5431161980382484  0.5539481075707045  0.5007901800813599   T   T   T
  0.5748225721124527  0.4999990000000025  0.5008162250975587   T   T   T
  0.5431151980382509  0.4460508924292839  0.5007901800813599   T   T   T
  0.4812226655720124  0.4460012722549536  0.5008575174064163   T   T   T
 
  0.00000000E+00  0.00000000E+00  0.00000000E+00
  0.00000000E+00  0.00000000E+00  0.00000000E+00
  0.00000000E+00  0.00000000E+00  0.00000000E+00
  0.00000000E+00  0.00000000E+00  0.00000000E+00
  0.00000000E+00  0.00000000E+00  0.00000000E+00
  0.00000000E+00  0.00000000E+00  0.00000000E+00
  0.00000000E+00  0.00000000E+00  0.00000000E+00
  0.00000000E+00  0.00000000E+00  0.00000000E+00
  0.00000000E+00  0.00000000E+00  0.00000000E+00
  0.00000000E+00  0.00000000E+00  0.00000000E+00
  0.00000000E+00  0.00000000E+00  0.00000000E+00
  0.00000000E+00  0.00000000E+00  0.00000000E+00
  0.00000000E+00  0.00000000E+00  0.00000000E+00
  0.00000000E+00  0.00000000E+00  0.00000000E+00
