C N H                                   
   1.00000000000000     
    40.0000000000000000    0.0000000000000000    0.0000000000000000
     0.0000000000000000   40.0000000000000000    0.0000000000000000
     0.0000000000000000    0.0000000000000000   40.0000000000000000
   C    N    H 
     9     1     7
Selective dynamics
Direct
  0.5292737542235528  0.4680927437095690  0.5000000000000000   T   T   T
  0.5587574599510390  0.4860072706163336  0.5000000000000000   T   T   T
  0.5581423863081554  0.5214264114669973  0.5000000000000000   T   T   T
  0.5281536445547772  0.5384908555281669  0.5000000000000000   T   T   T
  0.4973713059477589  0.5208223969804919  0.5000000000000000   T   T   T
  0.4398018519424483  0.5215981899845517  0.5000000000000000   T   T   T
  0.4377031621303331  0.4862191699000320  0.5000000000000000   T   T   T
  0.4668810266291743  0.4679255350730998  0.5000000000000000   T   T   T
  0.4980080583263415  0.4848986251298157  0.5000000000000000   T   T   T
  0.4681596326458077  0.5386539845964649  0.5000000000000000   T   T   T
  0.4664383058397732  0.4406303962287055  0.5000000000000000   T   T   T
  0.4132919107927435  0.4741047135502612  0.5000000000000000   T   T   T
  0.4167922023348751  0.5363915008312148  0.5000000000000000   T   T   T
  0.5272631971727293  0.5657337103818492  0.5000000000000000   T   T   T
  0.5816556827389547  0.5352401672946883  0.5000000000000000   T   T   T
  0.5827012311027246  0.4729671970789298  0.5000000000000000   T   T   T
  0.5296061873588442  0.4407961316488311  0.5000000000000000   T   T   T
 
  0.00000000E+00  0.00000000E+00  0.00000000E+00
  0.00000000E+00  0.00000000E+00  0.00000000E+00
  0.00000000E+00  0.00000000E+00  0.00000000E+00
  0.00000000E+00  0.00000000E+00  0.00000000E+00
  0.00000000E+00  0.00000000E+00  0.00000000E+00
  0.00000000E+00  0.00000000E+00  0.00000000E+00
  0.00000000E+00  0.00000000E+00  0.00000000E+00
  0.00000000E+00  0.00000000E+00  0.00000000E+00
  0.00000000E+00  0.00000000E+00  0.00000000E+00
  0.00000000E+00  0.00000000E+00  0.00000000E+00
  0.00000000E+00  0.00000000E+00  0.00000000E+00
  0.00000000E+00  0.00000000E+00  0.00000000E+00
  0.00000000E+00  0.00000000E+00  0.00000000E+00
  0.00000000E+00  0.00000000E+00  0.00000000E+00
  0.00000000E+00  0.00000000E+00  0.00000000E+00
  0.00000000E+00  0.00000000E+00  0.00000000E+00
  0.00000000E+00  0.00000000E+00  0.00000000E+00
