C N H                                   
   1.00000000000000     
    40.0000000000000000    0.0000000000000000    0.0000000000000000
     0.0000000000000000   40.0000000000000000    0.0000000000000000
     0.0000000000000000    0.0000000000000000   40.0000000000000000
   C    N    H 
    12     1    11
Selective dynamics
Direct
  0.4413278169172514  0.4688669635463469  0.5109373041395457   T   T   T
  0.4094850091846141  0.4825170896490150  0.5104182295877351   T   T   T
  0.4044118813504411  0.5149984481908092  0.4980687242793920   T   T   T
  0.4315374981708544  0.5338174606392556  0.4861188931941030   T   T   T
  0.4636584134742066  0.5207644773820448  0.4867384643771686   T   T   T
  0.4688491821079523  0.4881425095882435  0.4995602258470910   T   T   T
  0.5311508178920477  0.4881425095882435  0.5004387741529044   T   T   T
  0.5363415865257934  0.5207644773820448  0.5132605356228339   T   T   T
  0.5684625018291456  0.5338174606392556  0.5138811068058970   T   T   T
  0.5955881186495589  0.5149974481908117  0.5019312757206080   T   T   T
  0.5905149908153859  0.4825160896490104  0.4895827704122695   T   T   T
  0.5586721830827486  0.4688659635463495  0.4890636958604517   T   T   T
  0.5000000000000000  0.4733161169140274  0.5000000000000000   T   T   T
  0.5543472153895124  0.4437576789039142  0.4793841925237601   T   T   T
  0.6116161067084747  0.4678919454316741  0.4804574646222051   T   T   T
  0.6207527635150072  0.5254141188809029  0.5028184791350299   T   T   T
  0.5726324425968343  0.5585984598466851  0.5244280374591952   T   T   T
  0.5156017427147361  0.5347049900281249  0.5240146407463726   T   T   T
  0.5000000000000000  0.4477365989119235  0.5000000000000000   T   T   T
  0.4843982572852639  0.5347049900281249  0.4759843592536228   T   T   T
  0.4273675574031657  0.5585984598466851  0.4755719625408048   T   T   T
  0.3792472364849928  0.5254151188809004  0.4971825208649676   T   T   T
  0.3883838932915253  0.4678929454316787  0.5195435353777924   T   T   T
  0.4456527846104876  0.4437576789039142  0.5206158074762328   T   T   T
 
  0.00000000E+00  0.00000000E+00  0.00000000E+00
  0.00000000E+00  0.00000000E+00  0.00000000E+00
  0.00000000E+00  0.00000000E+00  0.00000000E+00
  0.00000000E+00  0.00000000E+00  0.00000000E+00
  0.00000000E+00  0.00000000E+00  0.00000000E+00
  0.00000000E+00  0.00000000E+00  0.00000000E+00
  0.00000000E+00  0.00000000E+00  0.00000000E+00
  0.00000000E+00  0.00000000E+00  0.00000000E+00
  0.00000000E+00  0.00000000E+00  0.00000000E+00
  0.00000000E+00  0.00000000E+00  0.00000000E+00
  0.00000000E+00  0.00000000E+00  0.00000000E+00
  0.00000000E+00  0.00000000E+00  0.00000000E+00
  0.00000000E+00  0.00000000E+00  0.00000000E+00
  0.00000000E+00  0.00000000E+00  0.00000000E+00
  0.00000000E+00  0.00000000E+00  0.00000000E+00
  0.00000000E+00  0.00000000E+00  0.00000000E+00
  0.00000000E+00  0.00000000E+00  0.00000000E+00
  0.00000000E+00  0.00000000E+00  0.00000000E+00
  0.00000000E+00  0.00000000E+00  0.00000000E+00
  0.00000000E+00  0.00000000E+00  0.00000000E+00
  0.00000000E+00  0.00000000E+00  0.00000000E+00
  0.00000000E+00  0.00000000E+00  0.00000000E+00
  0.00000000E+00  0.00000000E+00  0.00000000E+00
  0.00000000E+00  0.00000000E+00  0.00000000E+00
