!PBE0 def2-SV(p) Opt Freq d3 TightSCF SlowConv RIJCOSX defgrid2
 
%pal
nprocs 4
end
 
%scf
MaxIter 1500
end
 
%maxcore 3000
 

 
* xyz 0 1
C     1.9110002    0.8519244    0.2996021 
C     1.6964620   -0.1179598   -0.6675141 
C     2.6899935   -1.0295484   -0.9522425 
C     3.9088590   -0.9950387   -0.2709244 
C     4.1126513   -0.0197661    0.7023854 
C     3.1165998    0.8988132    0.9808707 
H     3.2734391    1.6561433    1.7336305 
H     5.0401179    0.0391227    1.2481963 
O     4.8146941   -1.9428073   -0.6282077 
C     6.0685479   -1.9634964    0.0222755 
H     5.9567630   -2.1388019    1.0962945 
H     6.6184075   -1.0324396   -0.1433738 
H     6.6138887   -2.7916633   -0.4262429 
H     2.5404755   -1.7873716   -1.7046202 
H     0.7614805   -0.1599872   -1.2058241 
S     0.6695962    2.0567363    0.7619450 
S    -0.6696988    2.0568487   -0.7618634 
C    -1.9109813    0.8518469   -0.2996980 
C    -1.6959338   -0.1188555    0.6664869 
C    -2.6894253   -1.0305016    0.9511705 
C    -3.9087519   -0.9952456    0.2707110 
C    -4.1130268   -0.0191977   -0.7017191 
C    -3.1170167    0.8994448   -0.9801430 
H    -3.2742344    1.6573869   -1.7322066 
H    -5.0408377    0.0402487   -1.2468841 
O    -4.8145227   -1.9431082    0.6278964 
C    -6.0689631   -1.9628385   -0.0214868 
H    -5.9582084   -2.1374488   -1.0957264 
H    -6.6142434   -2.7910924    0.4269443 
H    -6.6182910   -1.0316704    0.1452950 
H    -2.5395272   -1.7889445    1.7028482 
H    -0.7606006   -0.1614569    1.2041402
*
