C O S H                                 
   1.00000000000000     
    40.0000000000000000    0.0000000000000000    0.0000000000000000
     0.0000000000000000   40.0000000000000000    0.0000000000000000
     0.0000000000000000    0.0000000000000000   40.0000000000000000
   C    O    S    H 
    14     2     2    14
Selective dynamics
Direct
  0.5487257810926658  0.5331119823269610  0.5060788247657737   T   T   T
  0.5443497235912430  0.5073949923889721  0.4822779381369554   T   T   T
  0.5702523982188715  0.4856928716282086  0.4754334632209722   T   T   T
  0.6010772820836461  0.4889484939123129  0.4923915248959271   T   T   T
  0.6057401841568866  0.5150094782322547  0.5157726504698382   T   T   T
  0.5797962475274314  0.5370365508628915  0.5222929734695371   T   T   T
  0.6556979898906778  0.4659623566342160  0.5023472582717317   T   T   T
  0.4512792966204282  0.5331256491198861  0.4938754320608198   T   T   T
  0.4556720751184111  0.5074117112954911  0.5176750846720000   T   T   T
  0.4297602906874902  0.4857226421516778  0.5245613369201746   T   T   T
  0.3989173482940847  0.4889978525038807  0.5076366335451441   T   T   T
  0.3942430679098234  0.5150579274020602  0.4842552796700348   T   T   T
  0.4201921653362741  0.5370697623539069  0.4776986069233844   T   T   T
  0.3442971500668041  0.4660095721496259  0.4976864803135460   T   T   T
  0.6242237285738333  0.4657750513996501  0.4847683121888550   T   T   T
  0.3757649476599575  0.4658380770980923  0.5152777681087763   T   T   T
  0.5161920236161077  0.5592489733757643  0.5195914913046025   T   T   T
  0.4838197180306976  0.5592354714766433  0.4803303873050785   T   T   T
  0.5834788450578209  0.5572200907152870  0.5402403986511156   T   T   T
  0.6294573967122864  0.5181130582012984  0.5287169750974198   T   T   T
  0.6516511689262312  0.4633149541252990  0.5294036108054491   T   T   T
  0.6697095002816653  0.4889804564760554  0.4969771079011543   T   T   T
  0.6693890864321433  0.4443129178663093  0.4928285865717686   T   T   T
  0.5671697393445796  0.4653173707640234  0.4576242625118339   T   T   T
  0.5203990453938570  0.5042802499308987  0.4696834021449798   T   T   T
  0.4164972263093828  0.5572571459326460  0.4597561342247608   T   T   T
  0.3705141564203722  0.5181707175619193  0.4713312295441910   T   T   T
  0.3483600223975993  0.4633651366298682  0.4706319996936816   T   T   T
  0.3306106814938788  0.4443571128036329  0.5072016648170752   T   T   T
  0.3302769733366417  0.4890253267314781  0.5030493033428154   T   T   T
  0.4328543763549723  0.4653477975785441  0.5423601047291540   T   T   T
  0.4796313630632250  0.5042882483702658  0.5302407737214641   T   T   T
 
  0.00000000E+00  0.00000000E+00  0.00000000E+00
  0.00000000E+00  0.00000000E+00  0.00000000E+00
  0.00000000E+00  0.00000000E+00  0.00000000E+00
  0.00000000E+00  0.00000000E+00  0.00000000E+00
  0.00000000E+00  0.00000000E+00  0.00000000E+00
  0.00000000E+00  0.00000000E+00  0.00000000E+00
  0.00000000E+00  0.00000000E+00  0.00000000E+00
  0.00000000E+00  0.00000000E+00  0.00000000E+00
  0.00000000E+00  0.00000000E+00  0.00000000E+00
  0.00000000E+00  0.00000000E+00  0.00000000E+00
  0.00000000E+00  0.00000000E+00  0.00000000E+00
  0.00000000E+00  0.00000000E+00  0.00000000E+00
  0.00000000E+00  0.00000000E+00  0.00000000E+00
  0.00000000E+00  0.00000000E+00  0.00000000E+00
  0.00000000E+00  0.00000000E+00  0.00000000E+00
  0.00000000E+00  0.00000000E+00  0.00000000E+00
  0.00000000E+00  0.00000000E+00  0.00000000E+00
  0.00000000E+00  0.00000000E+00  0.00000000E+00
  0.00000000E+00  0.00000000E+00  0.00000000E+00
  0.00000000E+00  0.00000000E+00  0.00000000E+00
  0.00000000E+00  0.00000000E+00  0.00000000E+00
  0.00000000E+00  0.00000000E+00  0.00000000E+00
  0.00000000E+00  0.00000000E+00  0.00000000E+00
  0.00000000E+00  0.00000000E+00  0.00000000E+00
  0.00000000E+00  0.00000000E+00  0.00000000E+00
  0.00000000E+00  0.00000000E+00  0.00000000E+00
  0.00000000E+00  0.00000000E+00  0.00000000E+00
  0.00000000E+00  0.00000000E+00  0.00000000E+00
  0.00000000E+00  0.00000000E+00  0.00000000E+00
  0.00000000E+00  0.00000000E+00  0.00000000E+00
  0.00000000E+00  0.00000000E+00  0.00000000E+00
  0.00000000E+00  0.00000000E+00  0.00000000E+00
