C H                                     
   1.00000000000000     
    40.0000000000000000    0.0000000000000000    0.0000000000000000
     0.0000000000000000   40.0000000000000000    0.0000000000000000
     0.0000000000000000    0.0000000000000000   40.0000000000000000
   C    H 
     8    10
Selective dynamics
Direct
  0.4697243211248221  0.4680553849392908  0.5003432326397004   T   T   T
  0.4999776228766777  0.4506741597076385  0.5008996796758041   T   T   T
  0.5303176724511545  0.4680341759965856  0.5008028248255201   T   T   T
  0.5307270413212919  0.5030634001348560  0.5000553277733388   T   T   T
  0.5631972942071073  0.5221613604316673  0.4990692794701630   T   T   T
  0.5000446973487769  0.5200644334366729  0.4996008513364742   T   T   T
  0.4693842233737229  0.5031494560620331  0.4997924255279429   T   T   T
  0.4368314887488580  0.5221285005326806  0.5001414777173707   T   T   T
  0.5621283713459135  0.5446585121092085  0.5148129897346365   T   T   T
  0.5842409066839807  0.5067041332153721  0.5075528664719897   T   T   T
  0.5689218059338188  0.5305516662234240  0.4734784697037355   T   T   T
  0.4399118365711416  0.5476524630770854  0.4905039010639882   T   T   T
  0.4269130662539453  0.5241767174871086  0.5257463377830547   T   T   T
  0.4176446171902057  0.5094743730236360  0.4850889136791423   T   T   T
  0.5000565287612417  0.5474100750495197  0.4991135487156271   T   T   T
  0.5539079828098892  0.4542982031359912  0.5012474367098463   T   T   T
  0.4999650568707139  0.4233920070113228  0.5013782385619550   T   T   T
  0.4461054661267667  0.4543499784259026  0.5003731986097009   T   T   T
 
  0.00000000E+00  0.00000000E+00  0.00000000E+00
  0.00000000E+00  0.00000000E+00  0.00000000E+00
  0.00000000E+00  0.00000000E+00  0.00000000E+00
  0.00000000E+00  0.00000000E+00  0.00000000E+00
  0.00000000E+00  0.00000000E+00  0.00000000E+00
  0.00000000E+00  0.00000000E+00  0.00000000E+00
  0.00000000E+00  0.00000000E+00  0.00000000E+00
  0.00000000E+00  0.00000000E+00  0.00000000E+00
  0.00000000E+00  0.00000000E+00  0.00000000E+00
  0.00000000E+00  0.00000000E+00  0.00000000E+00
  0.00000000E+00  0.00000000E+00  0.00000000E+00
  0.00000000E+00  0.00000000E+00  0.00000000E+00
  0.00000000E+00  0.00000000E+00  0.00000000E+00
  0.00000000E+00  0.00000000E+00  0.00000000E+00
  0.00000000E+00  0.00000000E+00  0.00000000E+00
  0.00000000E+00  0.00000000E+00  0.00000000E+00
  0.00000000E+00  0.00000000E+00  0.00000000E+00
  0.00000000E+00  0.00000000E+00  0.00000000E+00
