C O H                                   
   1.00000000000000     
    25.0000000000000000    0.0000000000000000    0.0000000000000000
     0.0000000000000000   25.0000000000000000    0.0000000000000000
     0.0000000000000000    0.0000000000000000   25.0000000000000000
   C    O    H 
     6     2     4
Selective dynamics
Direct
  0.5000000000000000  0.5000000000000000  0.4417019611590760   T   T   T
  0.4530539834821852  0.4856215786120259  0.4724942135372885   T   T   T
  0.5469460165178148  0.5143784213879741  0.4724942135372885   T   T   T
  0.4530539834821852  0.4856215786120259  0.5275057864627115   T   T   T
  0.5469460165178148  0.5143784213879741  0.5275057864627115   T   T   T
  0.5000000000000000  0.5000000000000000  0.5582980388409240   T   T   T
  0.5000000000000000  0.5000000000000000  0.6096790796053497   T   T   T
  0.5000000000000000  0.5000000000000000  0.3903219203946477   T   T   T
  0.4171248197209607  0.4745784115999427  0.4501392794469723   T   T   T
  0.5828751802790393  0.5254215884000573  0.4501392794469723   T   T   T
  0.4171248197209607  0.4745784115999427  0.5498607205530277   T   T   T
  0.5828751802790393  0.5254215884000573  0.5498607205530277   T   T   T
 
  0.00000000E+00  0.00000000E+00  0.00000000E+00
  0.00000000E+00  0.00000000E+00  0.00000000E+00
  0.00000000E+00  0.00000000E+00  0.00000000E+00
  0.00000000E+00  0.00000000E+00  0.00000000E+00
  0.00000000E+00  0.00000000E+00  0.00000000E+00
  0.00000000E+00  0.00000000E+00  0.00000000E+00
  0.00000000E+00  0.00000000E+00  0.00000000E+00
  0.00000000E+00  0.00000000E+00  0.00000000E+00
  0.00000000E+00  0.00000000E+00  0.00000000E+00
  0.00000000E+00  0.00000000E+00  0.00000000E+00
  0.00000000E+00  0.00000000E+00  0.00000000E+00
  0.00000000E+00  0.00000000E+00  0.00000000E+00
