C H                                     
   1.00000000000000     
    40.0000000000000000    0.0000000000000000    0.0000000000000000
     0.0000000000000000   40.0000000000000000    0.0000000000000000
     0.0000000000000000    0.0000000000000000   40.0000000000000000
   C    H 
     7     8
Selective dynamics
Direct
  0.5524962388506961  0.4999987178626313  0.5001592612988881   T   T   T
  0.5348573281850794  0.4698340359134441  0.4999687751457731   T   T   T
  0.4999229728094058  0.4699117101525659  0.4996564146791351   T   T   T
  0.4818802797716885  0.5000018390806921  0.4996008775494492   T   T   T
  0.4442164936179904  0.5000018694799441  0.5001699282879738   T   T   T
  0.4999261456806507  0.5300909452848810  0.4996603018231989   T   T   T
  0.5348607458946416  0.5301635025356142  0.4999728634999271   T   T   T
  0.4339552407488992  0.5223038652957198  0.4878735089505743   T   T   T
  0.4339532674793832  0.4777741787570948  0.4877390588567540   T   T   T
  0.4347862758098364  0.4999225180004670  0.5260425231626067   T   T   T
  0.5483376257067680  0.5538847037436978  0.4999779367157607   T   T   T
  0.4863590425856976  0.5537941612538101  0.4994417542367419   T   T   T
  0.4863532407545778  0.4462096063021786  0.4994354890503536   T   T   T
  0.5483317642778853  0.4461123349759157  0.4999717245490761   T   T   T
  0.5797653378267880  0.4999970113613698  0.5003275821937782   T   T   T
 
  0.00000000E+00  0.00000000E+00  0.00000000E+00
  0.00000000E+00  0.00000000E+00  0.00000000E+00
  0.00000000E+00  0.00000000E+00  0.00000000E+00
  0.00000000E+00  0.00000000E+00  0.00000000E+00
  0.00000000E+00  0.00000000E+00  0.00000000E+00
  0.00000000E+00  0.00000000E+00  0.00000000E+00
  0.00000000E+00  0.00000000E+00  0.00000000E+00
  0.00000000E+00  0.00000000E+00  0.00000000E+00
  0.00000000E+00  0.00000000E+00  0.00000000E+00
  0.00000000E+00  0.00000000E+00  0.00000000E+00
  0.00000000E+00  0.00000000E+00  0.00000000E+00
  0.00000000E+00  0.00000000E+00  0.00000000E+00
  0.00000000E+00  0.00000000E+00  0.00000000E+00
  0.00000000E+00  0.00000000E+00  0.00000000E+00
  0.00000000E+00  0.00000000E+00  0.00000000E+00
