C O H                                   
   1.00000000000000     
    40.0000000000000000    0.0000000000000000    0.0000000000000000
     0.0000000000000000   40.0000000000000000    0.0000000000000000
     0.0000000000000000    0.0000000000000000   40.0000000000000000
   C    O    H 
    12     1    10
Selective dynamics
Direct
  0.5342017860098239  0.4868925822497934  0.5197879230060952   T   T   T
  0.5656332483703103  0.4717615720134639  0.5209709107596449   T   T   T
  0.5927628428184754  0.4855933453203961  0.5038058745970014   T   T   T
  0.5882902868877362  0.5149262139278848  0.4853239971610141   T   T   T
  0.5569464320840983  0.5302315539491111  0.4837563509075694   T   T   T
  0.5300192315716854  0.5160905342608545  0.5009620207353017   T   T   T
  0.4699805036387162  0.5160880083937799  0.4990398500362466   T   T   T
  0.4430509387312663  0.5302294799400720  0.5162423921531171   T   T   T
  0.4117077553652895  0.5149248540946291  0.5146721211100564   T   T   T
  0.4072364652893846  0.4855899779063294  0.4961918622552920   T   T   T
  0.4343695984259321  0.4717576988284556  0.4790301309561532   T   T   T
  0.4657993027915594  0.4868890561831583  0.4802164211655620   T   T   T
  0.4999994448246667  0.5334650021605444  0.5000016733125818   T   T   T
  0.4869058205089487  0.4761912419282179  0.4667058440580128   T   T   T
  0.4311024427309121  0.4489938642208749  0.4643739093033902   T   T   T
  0.3828003011146573  0.4736027006354092  0.4951205611691036   T   T   T
  0.3907193385702399  0.5259615272463940  0.5281479509506354   T   T   T
  0.4470168259713997  0.5530244706729183  0.5306441036662497   T   T   T
  0.5529785351319734  0.5530236553058520  0.4693515900005829   T   T   T
  0.6092765556570995  0.5259613864967954  0.4718453981611547   T   T   T
  0.6172002746090601  0.4736065663557895  0.5048761434863481   T   T   T
  0.5689019231292944  0.4489996619052768  0.5356294634573896   T   T   T
  0.5130981457674751  0.4761960460039542  0.5333025075914924   T   T   T
 
  0.00000000E+00  0.00000000E+00  0.00000000E+00
  0.00000000E+00  0.00000000E+00  0.00000000E+00
  0.00000000E+00  0.00000000E+00  0.00000000E+00
  0.00000000E+00  0.00000000E+00  0.00000000E+00
  0.00000000E+00  0.00000000E+00  0.00000000E+00
  0.00000000E+00  0.00000000E+00  0.00000000E+00
  0.00000000E+00  0.00000000E+00  0.00000000E+00
  0.00000000E+00  0.00000000E+00  0.00000000E+00
  0.00000000E+00  0.00000000E+00  0.00000000E+00
  0.00000000E+00  0.00000000E+00  0.00000000E+00
  0.00000000E+00  0.00000000E+00  0.00000000E+00
  0.00000000E+00  0.00000000E+00  0.00000000E+00
  0.00000000E+00  0.00000000E+00  0.00000000E+00
  0.00000000E+00  0.00000000E+00  0.00000000E+00
  0.00000000E+00  0.00000000E+00  0.00000000E+00
  0.00000000E+00  0.00000000E+00  0.00000000E+00
  0.00000000E+00  0.00000000E+00  0.00000000E+00
  0.00000000E+00  0.00000000E+00  0.00000000E+00
  0.00000000E+00  0.00000000E+00  0.00000000E+00
  0.00000000E+00  0.00000000E+00  0.00000000E+00
  0.00000000E+00  0.00000000E+00  0.00000000E+00
  0.00000000E+00  0.00000000E+00  0.00000000E+00
  0.00000000E+00  0.00000000E+00  0.00000000E+00
