C H                                     
   1.00000000000000     
    40.0000000000000000    0.0000000000000000    0.0000000000000000
     0.0000000000000000   40.0000000000000000    0.0000000000000000
     0.0000000000000000    0.0000000000000000   40.0000000000000000
   C    H 
    12    14
Selective dynamics
Direct
  0.5124009686763458  0.4676973451656039  0.4999975357014392   T   T   T
  0.5353780439964808  0.4944919305075999  0.4999979164072244   T   T   T
  0.5219454191022379  0.5270643904353918  0.4999924407119920   T   T   T
  0.4875975212304127  0.5323036906661116  0.4999908854063975   T   T   T
  0.4646219325568239  0.5055090758917018  0.4999884270886668   T   T   T
  0.4780540311485950  0.4729361463616470  0.4999913305028869   T   T   T
  0.4287512646496978  0.5127925827126703  0.4999859900308437   T   T   T
  0.4033068125926036  0.4907398847048157  0.5000061012267665   T   T   T
  0.3671311580817758  0.5000196509444592  0.5000107166994638   T   T   T
  0.5712481293741973  0.4872074159955133  0.5000009716112288   T   T   T
  0.5966934236446093  0.5092597369040774  0.5000030452354309   T   T   T
  0.6328693493349107  0.4999796533533072  0.5000062268769483   T   T   T
  0.4614342511864749  0.4513102557934943  0.4999911807081432   T   T   T
  0.3542017987485195  0.4896024042194327  0.4780232646013474   T   T   T
  0.3635886973664313  0.5272445751382406  0.4999863243792149   T   T   T
  0.3542139213810387  0.4896433455589531  0.5220243008575380   T   T   T
  0.4087049021211016  0.4639059892765403  0.5000325610366900   T   T   T
  0.4224314762184918  0.5394774386790075  0.4999672144097858   T   T   T
  0.4780019259871509  0.5578753751285177  0.4999864401722220   T   T   T
  0.5385653762248523  0.5486904573951534  0.4999932769108497   T   T   T
  0.6457922327075778  0.5103800258254765  0.5220053806444156   T   T   T
  0.6457937262111670  0.5103732889341686  0.4780039460701673   T   T   T
  0.6364124856319719  0.4727544961519285  0.5000102107206317   T   T   T
  0.5912965319514853  0.5360933531221832  0.5000007704033180   T   T   T
  0.5775675371755682  0.4605230363619768  0.5000040033096695   T   T   T
  0.5219970826994782  0.4421254547720181  0.4999985382766567   T   T   T
 
  0.00000000E+00  0.00000000E+00  0.00000000E+00
  0.00000000E+00  0.00000000E+00  0.00000000E+00
  0.00000000E+00  0.00000000E+00  0.00000000E+00
  0.00000000E+00  0.00000000E+00  0.00000000E+00
  0.00000000E+00  0.00000000E+00  0.00000000E+00
  0.00000000E+00  0.00000000E+00  0.00000000E+00
  0.00000000E+00  0.00000000E+00  0.00000000E+00
  0.00000000E+00  0.00000000E+00  0.00000000E+00
  0.00000000E+00  0.00000000E+00  0.00000000E+00
  0.00000000E+00  0.00000000E+00  0.00000000E+00
  0.00000000E+00  0.00000000E+00  0.00000000E+00
  0.00000000E+00  0.00000000E+00  0.00000000E+00
  0.00000000E+00  0.00000000E+00  0.00000000E+00
  0.00000000E+00  0.00000000E+00  0.00000000E+00
  0.00000000E+00  0.00000000E+00  0.00000000E+00
  0.00000000E+00  0.00000000E+00  0.00000000E+00
  0.00000000E+00  0.00000000E+00  0.00000000E+00
  0.00000000E+00  0.00000000E+00  0.00000000E+00
  0.00000000E+00  0.00000000E+00  0.00000000E+00
  0.00000000E+00  0.00000000E+00  0.00000000E+00
  0.00000000E+00  0.00000000E+00  0.00000000E+00
  0.00000000E+00  0.00000000E+00  0.00000000E+00
  0.00000000E+00  0.00000000E+00  0.00000000E+00
  0.00000000E+00  0.00000000E+00  0.00000000E+00
  0.00000000E+00  0.00000000E+00  0.00000000E+00
  0.00000000E+00  0.00000000E+00  0.00000000E+00
