C N O H                                 
   1.00000000000000     
    40.0000000000000000    0.0000000000000000    0.0000000000000000
     0.0000000000000000   40.0000000000000000    0.0000000000000000
     0.0000000000000000    0.0000000000000000   40.0000000000000000
   C    N    O    H 
    10     1     1    13
Selective dynamics
Direct
  0.4662661174309281  0.5306255340111752  0.5029789282928988   T   T   T
  0.4330902867856232  0.5331938992238711  0.4940069200105539   T   T   T
  0.4132621838690907  0.5045608811229390  0.4905392836471592   T   T   T
  0.4270716377274709  0.4729607733877588  0.4964346722985539   T   T   T
  0.4602846968754684  0.4696983187238632  0.5049648178232263   T   T   T
  0.4807238364750720  0.4985894840322002  0.5079953649136278   T   T   T
  0.5331756278946611  0.4655306700058474  0.5079098250837202   T   T   T
  0.5562530053891492  0.4744076956360702  0.4782159996101648   T   T   T
  0.5589526242654111  0.5305471423282193  0.4948656289497201   T   T   T
  0.5354963419416461  0.5231632936222192  0.5245065012922012   T   T   T
  0.5138439730859630  0.4953627904336024  0.5156364886649816   T   T   T
  0.5775497483972182  0.5014403150398269  0.4866880376504782   T   T   T
  0.5483002649239137  0.4589985494827803  0.5296232598396501   T   T   T
  0.5172447789391866  0.4447805670139496  0.5008646399990522   T   T   T
  0.5408576723226741  0.4806491006251504  0.4564112454334620   T   T   T
  0.5720548354672521  0.4529620465587585  0.4726684482675300   T   T   T
  0.5767455373079665  0.5498066055719578  0.5021014041599650   T   T   T
  0.5442354862917256  0.5389535494964478  0.4733236425636237   T   T   T
  0.5212184749495048  0.5450828501998179  0.5315675750345739   T   T   T
  0.5505683897865913  0.5150739866677337  0.5457726076796291   T   T   T
  0.4702342354810811  0.4452234713944695  0.5105462188898042   T   T   T
  0.4116107832806168  0.4508129467777297  0.4946326387563043   T   T   T
  0.3872321596510185  0.5068811422471048  0.4835395978746924   T   T   T
  0.4224972357355725  0.5576729893552921  0.4893809766934482   T   T   T
  0.4812270657251806  0.5530223970412181  0.5048262765710065   T   T   T
 
  0.00000000E+00  0.00000000E+00  0.00000000E+00
  0.00000000E+00  0.00000000E+00  0.00000000E+00
  0.00000000E+00  0.00000000E+00  0.00000000E+00
  0.00000000E+00  0.00000000E+00  0.00000000E+00
  0.00000000E+00  0.00000000E+00  0.00000000E+00
  0.00000000E+00  0.00000000E+00  0.00000000E+00
  0.00000000E+00  0.00000000E+00  0.00000000E+00
  0.00000000E+00  0.00000000E+00  0.00000000E+00
  0.00000000E+00  0.00000000E+00  0.00000000E+00
  0.00000000E+00  0.00000000E+00  0.00000000E+00
  0.00000000E+00  0.00000000E+00  0.00000000E+00
  0.00000000E+00  0.00000000E+00  0.00000000E+00
  0.00000000E+00  0.00000000E+00  0.00000000E+00
  0.00000000E+00  0.00000000E+00  0.00000000E+00
  0.00000000E+00  0.00000000E+00  0.00000000E+00
  0.00000000E+00  0.00000000E+00  0.00000000E+00
  0.00000000E+00  0.00000000E+00  0.00000000E+00
  0.00000000E+00  0.00000000E+00  0.00000000E+00
  0.00000000E+00  0.00000000E+00  0.00000000E+00
  0.00000000E+00  0.00000000E+00  0.00000000E+00
  0.00000000E+00  0.00000000E+00  0.00000000E+00
  0.00000000E+00  0.00000000E+00  0.00000000E+00
  0.00000000E+00  0.00000000E+00  0.00000000E+00
  0.00000000E+00  0.00000000E+00  0.00000000E+00
  0.00000000E+00  0.00000000E+00  0.00000000E+00
