C O H                                   
   1.00000000000000     
    40.0000000000000000    0.0000000000000000    0.0000000000000000
     0.0000000000000000   40.0000000000000000    0.0000000000000000
     0.0000000000000000    0.0000000000000000   40.0000000000000000
   C    O    H 
     8     1     8
Selective dynamics
Direct
  0.5102626473394928  0.4766151887795041  0.4999915521708324   T   T   T
  0.5450309024235737  0.4759464969661685  0.4999976436598051   T   T   T
  0.5630242469930558  0.5057595932643383  0.5000021696101402   T   T   T
  0.5462198952870352  0.5363301390054326  0.5000012973922139   T   T   T
  0.5115730799661592  0.5370360487419628  0.4999945912904422   T   T   T
  0.4932148075077951  0.5071982088847425  0.4999911219292337   T   T   T
  0.4560219878834298  0.5090857011506793  0.4999951319780067   T   T   T
  0.4360716053245223  0.4772509765250573  0.5000053884669198   T   T   T
  0.4418341042595892  0.5364100433582969  0.4999955394705419   T   T   T
  0.4095695149662941  0.4833535057057129  0.5000065121325350   T   T   T
  0.4420184016826848  0.4621216002369407  0.5219703188082530   T   T   T
  0.4420138597850689  0.4621111217005310  0.4780456410694870   T   T   T
  0.4981639581805483  0.5605658812076468  0.4999963761828592   T   T   T
  0.5602317078771617  0.5595268083789697  0.5000073835123612   T   T   T
  0.5901244033558463  0.5052285286834192  0.5000110223943458   T   T   T
  0.5580817660844066  0.4521940466644100  0.4999988190837970   T   T   T
  0.4965441110833411  0.4532661107462153  0.4999884908482289   T   T   T
 
  0.00000000E+00  0.00000000E+00  0.00000000E+00
  0.00000000E+00  0.00000000E+00  0.00000000E+00
  0.00000000E+00  0.00000000E+00  0.00000000E+00
  0.00000000E+00  0.00000000E+00  0.00000000E+00
  0.00000000E+00  0.00000000E+00  0.00000000E+00
  0.00000000E+00  0.00000000E+00  0.00000000E+00
  0.00000000E+00  0.00000000E+00  0.00000000E+00
  0.00000000E+00  0.00000000E+00  0.00000000E+00
  0.00000000E+00  0.00000000E+00  0.00000000E+00
  0.00000000E+00  0.00000000E+00  0.00000000E+00
  0.00000000E+00  0.00000000E+00  0.00000000E+00
  0.00000000E+00  0.00000000E+00  0.00000000E+00
  0.00000000E+00  0.00000000E+00  0.00000000E+00
  0.00000000E+00  0.00000000E+00  0.00000000E+00
  0.00000000E+00  0.00000000E+00  0.00000000E+00
  0.00000000E+00  0.00000000E+00  0.00000000E+00
  0.00000000E+00  0.00000000E+00  0.00000000E+00
