C O H                                   
   1.00000000000000     
    40.0000000000000000    0.0000000000000000    0.0000000000000000
     0.0000000000000000   40.0000000000000000    0.0000000000000000
     0.0000000000000000    0.0000000000000000   40.0000000000000000
   C    O    H 
     9     1     8
Selective dynamics
Direct
  0.4880390936826180  0.4777616219564676  0.4999903583075166   T   T   T
  0.4733799884416297  0.5096677308109704  0.4999969274900702   T   T   T
  0.4938641559677237  0.5382712570973517  0.4999953122064651   T   T   T
  0.5283854202809691  0.5350754314066238  0.4999949967861319   T   T   T
  0.5435893360325177  0.5031514420974559  0.4999924914622561   T   T   T
  0.5227819001221695  0.4747539002262460  0.4999874169581742   T   T   T
  0.5790471172570049  0.4998832051953646  0.4999988560749670   T   T   T
  0.6093567937287268  0.4972117480879826  0.5000152872924076   T   T   T
  0.4176701023714653  0.4871928491084856  0.5000088098274458   T   T   T
  0.4397758659590094  0.5155520732675318  0.5000018040026269   T   T   T
  0.5340381235167840  0.4499483570213571  0.4999817891988819   T   T   T
  0.6360435095194761  0.4947878057463125  0.5000306246905462   T   T   T
  0.5440214157370072  0.5573845956259773  0.4999873939428793   T   T   T
  0.4821330109236939  0.5628622514738175  0.4999964132313052   T   T   T
  0.3923819737751550  0.4975681697618576  0.5000167867597614   T   T   T
  0.4213585820051380  0.4718355996857964  0.4775247637033547   T   T   T
  0.4213728150466443  0.4718354332671288  0.5224902041765267   T   T   T
  0.4727597956322769  0.4552565281632653  0.4999897638886758   T   T   T
 
  0.00000000E+00  0.00000000E+00  0.00000000E+00
  0.00000000E+00  0.00000000E+00  0.00000000E+00
  0.00000000E+00  0.00000000E+00  0.00000000E+00
  0.00000000E+00  0.00000000E+00  0.00000000E+00
  0.00000000E+00  0.00000000E+00  0.00000000E+00
  0.00000000E+00  0.00000000E+00  0.00000000E+00
  0.00000000E+00  0.00000000E+00  0.00000000E+00
  0.00000000E+00  0.00000000E+00  0.00000000E+00
  0.00000000E+00  0.00000000E+00  0.00000000E+00
  0.00000000E+00  0.00000000E+00  0.00000000E+00
  0.00000000E+00  0.00000000E+00  0.00000000E+00
  0.00000000E+00  0.00000000E+00  0.00000000E+00
  0.00000000E+00  0.00000000E+00  0.00000000E+00
  0.00000000E+00  0.00000000E+00  0.00000000E+00
  0.00000000E+00  0.00000000E+00  0.00000000E+00
  0.00000000E+00  0.00000000E+00  0.00000000E+00
  0.00000000E+00  0.00000000E+00  0.00000000E+00
  0.00000000E+00  0.00000000E+00  0.00000000E+00
