C H                                     
   1.00000000000000     
    40.0000000000000000    0.0000000000000000    0.0000000000000000
     0.0000000000000000   40.0000000000000000    0.0000000000000000
     0.0000000000000000    0.0000000000000000   40.0000000000000000
   C    H 
    12    14
Selective dynamics
Direct
  0.5205371568984020  0.4856716683042477  0.4964779291346595   T   T   T
  0.5478967218221030  0.4638058517438132  0.5005292341582290   T   T   T
  0.5805774686666937  0.4754744177761839  0.5037615201522214   T   T   T
  0.5868759524808959  0.5098722232055668  0.5020859035397998   T   T   T
  0.5602713898016513  0.5319200259728666  0.4977527447792193   T   T   T
  0.5268625195904597  0.5207707264747586  0.4956647128522872   T   T   T
  0.5008242313412400  0.5466320146180137  0.4933193640418885   T   T   T
  0.4695420269748362  0.5455284530418308  0.5057732163795018   T   T   T
  0.4446598066467606  0.5733056759432050  0.5033443976665166   T   T   T
  0.4867808626818093  0.4719711884873392  0.4914081165473132   T   T   T
  0.4745873561600505  0.4437937918381287  0.5051891040079470   T   T   T
  0.4405045469850866  0.4298836072522363  0.4986374432130830   T   T   T
  0.4216948176754884  0.5647959196724671  0.4906956853399334   T   T   T
  0.4368317551281813  0.5817639892351207  0.5283801102570291   T   T   T
  0.4546323660657788  0.5948777707668095  0.4895847016618541   T   T   T
  0.4613051050927750  0.5232028844664547  0.5192535378022665   T   T   T
  0.5089634279225522  0.5699590147453155  0.4814100376118770   T   T   T
  0.5650973676457294  0.5587846674406217  0.4965450511947806   T   T   T
  0.6123733030817816  0.5193794937553616  0.5039821904086342   T   T   T
  0.6011132805641189  0.4577753449974960  0.5067972171084993   T   T   T
  0.5432306119159945  0.4369114809505631  0.5001967423186634   T   T   T
  0.4263932535445976  0.4453655666466871  0.4808764656505943   T   T   T
  0.4420308455304029  0.4042980287405198  0.4885021329923473   T   T   T
  0.4259318683120490  0.4279509207892647  0.5219484870420001   T   T   T
  0.4900872710530175  0.4298725419594435  0.5229872109970860   T   T   T
  0.4703956864175566  0.4864317311756883  0.4748957431417570   T   T   T
 
  0.00000000E+00  0.00000000E+00  0.00000000E+00
  0.00000000E+00  0.00000000E+00  0.00000000E+00
  0.00000000E+00  0.00000000E+00  0.00000000E+00
  0.00000000E+00  0.00000000E+00  0.00000000E+00
  0.00000000E+00  0.00000000E+00  0.00000000E+00
  0.00000000E+00  0.00000000E+00  0.00000000E+00
  0.00000000E+00  0.00000000E+00  0.00000000E+00
  0.00000000E+00  0.00000000E+00  0.00000000E+00
  0.00000000E+00  0.00000000E+00  0.00000000E+00
  0.00000000E+00  0.00000000E+00  0.00000000E+00
  0.00000000E+00  0.00000000E+00  0.00000000E+00
  0.00000000E+00  0.00000000E+00  0.00000000E+00
  0.00000000E+00  0.00000000E+00  0.00000000E+00
  0.00000000E+00  0.00000000E+00  0.00000000E+00
  0.00000000E+00  0.00000000E+00  0.00000000E+00
  0.00000000E+00  0.00000000E+00  0.00000000E+00
  0.00000000E+00  0.00000000E+00  0.00000000E+00
  0.00000000E+00  0.00000000E+00  0.00000000E+00
  0.00000000E+00  0.00000000E+00  0.00000000E+00
  0.00000000E+00  0.00000000E+00  0.00000000E+00
  0.00000000E+00  0.00000000E+00  0.00000000E+00
  0.00000000E+00  0.00000000E+00  0.00000000E+00
  0.00000000E+00  0.00000000E+00  0.00000000E+00
  0.00000000E+00  0.00000000E+00  0.00000000E+00
  0.00000000E+00  0.00000000E+00  0.00000000E+00
  0.00000000E+00  0.00000000E+00  0.00000000E+00
