C Cl O H                                
   1.00000000000000     
    40.0000000000000000    0.0000000000000000    0.0000000000000000
     0.0000000000000000   40.0000000000000000    0.0000000000000000
     0.0000000000000000    0.0000000000000000   40.0000000000000000
   C    Cl   O    H 
     8     1     1     7
Selective dynamics
Direct
  0.5096406951879828  0.5232483712399869  0.5000087664399970   T   T   T
  0.5445030978584811  0.5238161709886242  0.5000109980713958   T   T   T
  0.5619208311283401  0.4935207302651463  0.4999973309934376   T   T   T
  0.5450972460801680  0.4628087461989168  0.4999981661124764   T   T   T
  0.5103222240949421  0.4626972402553378  0.5000038305524015   T   T   T
  0.4920850473627141  0.4927847533454113  0.5000032313874030   T   T   T
  0.4547265618314640  0.4913155806923655  0.5000075095042362   T   T   T
  0.4351208329258682  0.5235693442070684  0.4999851389462009   T   T   T
  0.6053095785355396  0.4939026040969168  0.4999768875527124   T   T   T
  0.4401436836452035  0.4639982515856076  0.5000157112600903   T   T   T
  0.4412631304506505  0.5387212668570385  0.5221033963333639   T   T   T
  0.4412894673206935  0.5387197050182522  0.4778719384012646   T   T   T
  0.4083277017224489  0.5179404423427343  0.4999709448322847   T   T   T
  0.4967351365639345  0.4390613554922211  0.5000041460141347   T   T   T
  0.5591504269751653  0.4394747080049370  0.4999905071487589   T   T   T
  0.5580671143150724  0.5474295446770867  0.5000207830256684   T   T   T
  0.4962962240013411  0.5469931847323721  0.5000317134241641   T   T   T
 
  0.00000000E+00  0.00000000E+00  0.00000000E+00
  0.00000000E+00  0.00000000E+00  0.00000000E+00
  0.00000000E+00  0.00000000E+00  0.00000000E+00
  0.00000000E+00  0.00000000E+00  0.00000000E+00
  0.00000000E+00  0.00000000E+00  0.00000000E+00
  0.00000000E+00  0.00000000E+00  0.00000000E+00
  0.00000000E+00  0.00000000E+00  0.00000000E+00
  0.00000000E+00  0.00000000E+00  0.00000000E+00
  0.00000000E+00  0.00000000E+00  0.00000000E+00
  0.00000000E+00  0.00000000E+00  0.00000000E+00
  0.00000000E+00  0.00000000E+00  0.00000000E+00
  0.00000000E+00  0.00000000E+00  0.00000000E+00
  0.00000000E+00  0.00000000E+00  0.00000000E+00
  0.00000000E+00  0.00000000E+00  0.00000000E+00
  0.00000000E+00  0.00000000E+00  0.00000000E+00
  0.00000000E+00  0.00000000E+00  0.00000000E+00
  0.00000000E+00  0.00000000E+00  0.00000000E+00
