C N H                                   
   1.00000000000000     
    40.0000000000000000    0.0000000000000000    0.0000000000000000
     0.0000000000000000   40.0000000000000000    0.0000000000000000
     0.0000000000000000    0.0000000000000000   40.0000000000000000
   C    N    H 
     6     2     8
Selective dynamics
Direct
  0.4817058468871650  0.5346483171315966  0.5002998992533682   T   T   T
  0.4514789710344457  0.5173715966862282  0.5002878968733728   T   T   T
  0.4514770301401667  0.4826287240145713  0.4997146977794751   T   T   T
  0.4817056362924944  0.4653523165472623  0.4997023744953376   T   T   T
  0.5120637309170648  0.4823743013939918  0.5000866209392881   T   T   T
  0.5120655453199363  0.5176259704448581  0.4999156233432178   T   T   T
  0.5429205415431546  0.4658233765871749  0.4989942416556070   T   T   T
  0.5429216666380448  0.5341765999165766  0.5010027178357342   T   T   T
  0.5604911389269787  0.4764007278131504  0.5138563712798342   T   T   T
  0.5412446021518348  0.4410532314907732  0.5036379317022196   T   T   T
  0.5604925301739043  0.5235966177986591  0.4861422904751523   T   T   T
  0.5412474309832617  0.5589466048950376  0.4963605731934662   T   T   T
  0.4819457644715424  0.4381973598950725  0.4997042869310126   T   T   T
  0.4281456663686893  0.4688644420864314  0.4996028980207914   T   T   T
  0.4281471399416827  0.5311369346538337  0.5003955810921334   T   T   T
  0.4819467582096049  0.5618028786447962  0.5002949951300062   T   T   T
 
  0.00000000E+00  0.00000000E+00  0.00000000E+00
  0.00000000E+00  0.00000000E+00  0.00000000E+00
  0.00000000E+00  0.00000000E+00  0.00000000E+00
  0.00000000E+00  0.00000000E+00  0.00000000E+00
  0.00000000E+00  0.00000000E+00  0.00000000E+00
  0.00000000E+00  0.00000000E+00  0.00000000E+00
  0.00000000E+00  0.00000000E+00  0.00000000E+00
  0.00000000E+00  0.00000000E+00  0.00000000E+00
  0.00000000E+00  0.00000000E+00  0.00000000E+00
  0.00000000E+00  0.00000000E+00  0.00000000E+00
  0.00000000E+00  0.00000000E+00  0.00000000E+00
  0.00000000E+00  0.00000000E+00  0.00000000E+00
  0.00000000E+00  0.00000000E+00  0.00000000E+00
  0.00000000E+00  0.00000000E+00  0.00000000E+00
  0.00000000E+00  0.00000000E+00  0.00000000E+00
  0.00000000E+00  0.00000000E+00  0.00000000E+00
