C F O H                                 
   1.00000000000000     
    40.0000000000000000    0.0000000000000000    0.0000000000000000
     0.0000000000000000   40.0000000000000000    0.0000000000000000
     0.0000000000000000    0.0000000000000000   40.0000000000000000
   C    F    O    H 
     9     3     1     7
Selective dynamics
Direct
  0.5066963842247827  0.5363553169500261  0.5001311772551011   T   T   T
  0.4719039945296260  0.5365944937886011  0.5003236043150768   T   T   T
  0.4545189093291371  0.5062187883131493  0.5005685609701291   T   T   T
  0.4718453316886344  0.4757871219963873  0.5005678169981200   T   T   T
  0.5066936115450296  0.4757837099313011  0.5003444346431875   T   T   T
  0.5244971426831826  0.5060948363086633  0.5000958399997192   T   T   T
  0.5620456655681151  0.5073978338519984  0.4997759149278468   T   T   T
  0.5813936144366998  0.4750902747999149  0.4996035523256290   T   T   T
  0.4169206260938786  0.5056890201506393  0.4999989389395602   T   T   T
  0.4047659922202687  0.4955707632335591  0.4694061377803722   T   T   T
  0.4038853371375754  0.4838409987227858  0.5230205328226828   T   T   T
  0.4029628991370532  0.5361850612183084  0.5063527094744171   T   T   T
  0.5765717516479920  0.5346827479361077  0.4996593173841687   T   T   T
  0.5752635666141065  0.4600616055850162  0.5218019452139241   T   T   T
  0.5747978108576371  0.4599814262394221  0.4775941364888594   T   T   T
  0.6082112722536189  0.4805364925534316  0.4993191149531525   T   T   T
  0.5198219957483524  0.4519228157110095  0.5003402822692441   T   T   T
  0.4582080408563097  0.4521976649515347  0.5007755579000512   T   T   T
  0.4583928039270138  0.5602267943107740  0.5003367500344780   T   T   T
  0.5206032495009858  0.5597822334473846  0.4999836753042732   T   T   T
 
  0.00000000E+00  0.00000000E+00  0.00000000E+00
  0.00000000E+00  0.00000000E+00  0.00000000E+00
  0.00000000E+00  0.00000000E+00  0.00000000E+00
  0.00000000E+00  0.00000000E+00  0.00000000E+00
  0.00000000E+00  0.00000000E+00  0.00000000E+00
  0.00000000E+00  0.00000000E+00  0.00000000E+00
  0.00000000E+00  0.00000000E+00  0.00000000E+00
  0.00000000E+00  0.00000000E+00  0.00000000E+00
  0.00000000E+00  0.00000000E+00  0.00000000E+00
  0.00000000E+00  0.00000000E+00  0.00000000E+00
  0.00000000E+00  0.00000000E+00  0.00000000E+00
  0.00000000E+00  0.00000000E+00  0.00000000E+00
  0.00000000E+00  0.00000000E+00  0.00000000E+00
  0.00000000E+00  0.00000000E+00  0.00000000E+00
  0.00000000E+00  0.00000000E+00  0.00000000E+00
  0.00000000E+00  0.00000000E+00  0.00000000E+00
  0.00000000E+00  0.00000000E+00  0.00000000E+00
  0.00000000E+00  0.00000000E+00  0.00000000E+00
  0.00000000E+00  0.00000000E+00  0.00000000E+00
  0.00000000E+00  0.00000000E+00  0.00000000E+00
