C H                                     
   1.00000000000000     
    40.0000000000000000    0.0000000000000000    0.0000000000000000
     0.0000000000000000   40.0000000000000000    0.0000000000000000
     0.0000000000000000    0.0000000000000000   40.0000000000000000
   C    H 
     8    10
Selective dynamics
Direct
  0.4696992894791236  0.4680284710989753  0.5003474206705008   T   T   T
  0.4999775171757932  0.4506401425756579  0.5009002304850299   T   T   T
  0.5303408624155139  0.4680078820177656  0.5008006568778427   T   T   T
  0.5307551060237614  0.5030733885248253  0.5000521177625288   T   T   T
  0.5632384935132109  0.5221798024324684  0.4990808830088156   T   T   T
  0.5000445666529032  0.5201036450836014  0.4996034716127014   T   T   T
  0.4693565391289312  0.5031584412495107  0.4997957039699799   T   T   T
  0.4367960211620954  0.5221556570876302  0.5001276796652192   T   T   T
  0.5621122093005511  0.5446892756731643  0.5148164896087408   T   T   T
  0.5842484459506849  0.5066702605967208  0.5075512160264140   T   T   T
  0.5689110817782037  0.5305587989326952  0.4734630759870484   T   T   T
  0.4399303826034995  0.5476865868126524  0.4905035588992348   T   T   T
  0.4269159651240244  0.5241671023139673  0.5257631985415401   T   T   T
  0.4176361050308728  0.5094419190251642  0.4850879502837486   T   T   T
  0.5000534422799632  0.5474652625658933  0.4991152183755290   T   T   T
  0.5539476045529099  0.4542869744912466  0.5012480041662570   T   T   T
  0.4999685553904030  0.4233522870043274  0.5013748993483844   T   T   T
  0.4460678124375761  0.4543331025137292  0.5003692247104681   T   T   T
 
  0.00000000E+00  0.00000000E+00  0.00000000E+00
  0.00000000E+00  0.00000000E+00  0.00000000E+00
  0.00000000E+00  0.00000000E+00  0.00000000E+00
  0.00000000E+00  0.00000000E+00  0.00000000E+00
  0.00000000E+00  0.00000000E+00  0.00000000E+00
  0.00000000E+00  0.00000000E+00  0.00000000E+00
  0.00000000E+00  0.00000000E+00  0.00000000E+00
  0.00000000E+00  0.00000000E+00  0.00000000E+00
  0.00000000E+00  0.00000000E+00  0.00000000E+00
  0.00000000E+00  0.00000000E+00  0.00000000E+00
  0.00000000E+00  0.00000000E+00  0.00000000E+00
  0.00000000E+00  0.00000000E+00  0.00000000E+00
  0.00000000E+00  0.00000000E+00  0.00000000E+00
  0.00000000E+00  0.00000000E+00  0.00000000E+00
  0.00000000E+00  0.00000000E+00  0.00000000E+00
  0.00000000E+00  0.00000000E+00  0.00000000E+00
  0.00000000E+00  0.00000000E+00  0.00000000E+00
  0.00000000E+00  0.00000000E+00  0.00000000E+00
