C O H                                   
   1.00000000000000     
    40.0000000000000000    0.0000000000000000    0.0000000000000000
     0.0000000000000000   40.0000000000000000    0.0000000000000000
     0.0000000000000000    0.0000000000000000   40.0000000000000000
   C    O    H 
    10     1    12
Selective dynamics
Direct
  0.4728194196453485  0.4910863450662629  0.4995515509301471   T   T   T
  0.4409373723012319  0.5051876681124773  0.5009230413937641   T   T   T
  0.4373276853743974  0.5398240094087283  0.5010519656701625   T   T   T
  0.4653453772775156  0.5603875008424732  0.4996251690993241   T   T   T
  0.4969927789458759  0.5461398772297160  0.4980638223528294   T   T   T
  0.5017142570062877  0.5114692468953487  0.4981855083802220   T   T   T
  0.5347463185508176  0.4958303009610857  0.4965721584857477   T   T   T
  0.5641236155275496  0.5106690440195281  0.5028634545372692   T   T   T
  0.5971271917977493  0.4934745216484125  0.5005300996876793   T   T   T
  0.4500395652805989  0.4356392974101544  0.5005039125842669   T   T   T
  0.4783869585298368  0.4574226844149273  0.4997507311839390   T   T   T
  0.5943315901985493  0.4673249731370390  0.4932413293410043   T   T   T
  0.6133811024315788  0.5058645224037870  0.4822916959050845   T   T   T
  0.6103757579492572  0.4944703945394150  0.5244789832959343   T   T   T
  0.5648143099289930  0.5367768012578895  0.5105077656869333   T   T   T
  0.5349531965682227  0.4694864459614577  0.4899659224334538   T   T   T
  0.5187295981833444  0.5622513894642437  0.4962865660110540   T   T   T
  0.4625963727455568  0.5873387819781127  0.4994027281038641   T   T   T
  0.4124542892422999  0.5505557831076976  0.5021258988913365   T   T   T
  0.4189697176273233  0.4894347901890720  0.5020127342259515   T   T   T
  0.4340614995702854  0.4395860824987252  0.4786837166491417   T   T   T
  0.4354992790887696  0.4393200415253741  0.5233521200016871   T   T   T
  0.4602707462285801  0.4104604979280773  0.5000281251492203   T   T   T
 
  0.00000000E+00  0.00000000E+00  0.00000000E+00
  0.00000000E+00  0.00000000E+00  0.00000000E+00
  0.00000000E+00  0.00000000E+00  0.00000000E+00
  0.00000000E+00  0.00000000E+00  0.00000000E+00
  0.00000000E+00  0.00000000E+00  0.00000000E+00
  0.00000000E+00  0.00000000E+00  0.00000000E+00
  0.00000000E+00  0.00000000E+00  0.00000000E+00
  0.00000000E+00  0.00000000E+00  0.00000000E+00
  0.00000000E+00  0.00000000E+00  0.00000000E+00
  0.00000000E+00  0.00000000E+00  0.00000000E+00
  0.00000000E+00  0.00000000E+00  0.00000000E+00
  0.00000000E+00  0.00000000E+00  0.00000000E+00
  0.00000000E+00  0.00000000E+00  0.00000000E+00
  0.00000000E+00  0.00000000E+00  0.00000000E+00
  0.00000000E+00  0.00000000E+00  0.00000000E+00
  0.00000000E+00  0.00000000E+00  0.00000000E+00
  0.00000000E+00  0.00000000E+00  0.00000000E+00
  0.00000000E+00  0.00000000E+00  0.00000000E+00
  0.00000000E+00  0.00000000E+00  0.00000000E+00
  0.00000000E+00  0.00000000E+00  0.00000000E+00
  0.00000000E+00  0.00000000E+00  0.00000000E+00
  0.00000000E+00  0.00000000E+00  0.00000000E+00
  0.00000000E+00  0.00000000E+00  0.00000000E+00
