C O H                                   
   1.00000000000000     
    25.0000000000000000    0.0000000000000000    0.0000000000000000
     0.0000000000000000   25.0000000000000000    0.0000000000000000
     0.0000000000000000    0.0000000000000000   25.0000000000000000
   C    O    H 
     6     2     4
Selective dynamics
Direct
  0.5000000000000000  0.5000000000000000  0.4426339144989129   T   T   T
  0.4514756485667704  0.4851367956589598  0.4730339528822114   T   T   T
  0.5485243514332296  0.5148632043410402  0.4730339528822114   T   T   T
  0.4514756485667704  0.4851367956589598  0.5269660471177886   T   T   T
  0.5485243514332296  0.5148632043410402  0.5269660471177886   T   T   T
  0.5000000000000000  0.5000000000000000  0.5573660855010871   T   T   T
  0.5000000000000000  0.5000000000000000  0.6070938936526389   T   T   T
  0.5000000000000000  0.5000000000000000  0.3929061063473611   T   T   T
  0.4162853097680355  0.4743191343511484  0.4495830509705172   T   T   T
  0.5837146902319645  0.5256808656488516  0.4495830509705172   T   T   T
  0.4162853097680355  0.4743191343511484  0.5504169490294828   T   T   T
  0.5837146902319645  0.5256808656488516  0.5504169490294828   T   T   T
 
  0.00000000E+00  0.00000000E+00  0.00000000E+00
  0.00000000E+00  0.00000000E+00  0.00000000E+00
  0.00000000E+00  0.00000000E+00  0.00000000E+00
  0.00000000E+00  0.00000000E+00  0.00000000E+00
  0.00000000E+00  0.00000000E+00  0.00000000E+00
  0.00000000E+00  0.00000000E+00  0.00000000E+00
  0.00000000E+00  0.00000000E+00  0.00000000E+00
  0.00000000E+00  0.00000000E+00  0.00000000E+00
  0.00000000E+00  0.00000000E+00  0.00000000E+00
  0.00000000E+00  0.00000000E+00  0.00000000E+00
  0.00000000E+00  0.00000000E+00  0.00000000E+00
  0.00000000E+00  0.00000000E+00  0.00000000E+00
