C N O H                                 
   1.00000000000000     
    25.0000000000000000    0.0000000000000000    0.0000000000000000
     0.0000000000000000   25.0000000000000000    0.0000000000000000
     0.0000000000000000    0.0000000000000000   25.0000000000000000
   C    N    O    H 
     9     1     1    16
Selective dynamics
Direct
  0.5150524301960543  0.5260277593985083  0.4579351425491958   T   T   T
  0.5290326896087306  0.4698434039313147  0.4368064243597087   T   T   T
  0.5367517155214615  0.4296770234662199  0.4806292981554920   T   T   T
  0.5132500622298237  0.4348885909950030  0.5283594618071061   T   T   T
  0.4753731276858301  0.4793680806793476  0.5431721331054365   T   T   T
  0.5646201997624571  0.5529334970665498  0.4829389241249857   T   T   T
  0.4932799303442388  0.5605408791528402  0.4123364364109927   T   T   T
  0.4932378007092690  0.5063894601026161  0.5957296219862374   T   T   T
  0.4187989482297088  0.4557179528830350  0.5500302152419281   T   T   T
  0.4724738543518285  0.5205267263046727  0.4997405322094003   T   T   T
  0.4405898835365154  0.5603539431056082  0.5078032092913388   T   T   T
  0.5654448488091727  0.4730317335095714  0.4122396922443325   T   T   T
  0.4971710501890532  0.4561933609818832  0.4094135718590162   T   T   T
  0.5624027116120228  0.3951900816156260  0.4726618588774837   T   T   T
  0.5194751551206261  0.4050224883810441  0.5596999752709360   T   T   T
  0.5532603402984761  0.5905148531986124  0.5026313012133297   T   T   T
  0.5840137799020575  0.5267471488100089  0.5123589258065270   T   T   T
  0.5938419526891333  0.5620616245587265  0.4513800323009775   T   T   T
  0.4855405571742268  0.6016046735946806  0.4255714874595312   T   T   T
  0.4559733027764983  0.5437349523008381  0.3963316199039392   T   T   T
  0.5230782219366321  0.5615835085127345  0.3800475235955556   T   T   T
  0.4661851362693033  0.5395763162654093  0.6053827800612622   T   T   T
  0.5342122138731655  0.5218205725033837  0.5926313367129240   T   T   T
  0.4919485957853376  0.4771362101969809  0.6284904613761874   T   T   T
  0.3902867524033278  0.4874946201551016  0.5602247526455566   T   T   T
  0.4056808521516262  0.4359860226493096  0.5130411179419214   T   T   T
  0.4190258868333959  0.4260345156803948  0.5824111634887006   T   T   T
 
  0.00000000E+00  0.00000000E+00  0.00000000E+00
  0.00000000E+00  0.00000000E+00  0.00000000E+00
  0.00000000E+00  0.00000000E+00  0.00000000E+00
  0.00000000E+00  0.00000000E+00  0.00000000E+00
  0.00000000E+00  0.00000000E+00  0.00000000E+00
  0.00000000E+00  0.00000000E+00  0.00000000E+00
  0.00000000E+00  0.00000000E+00  0.00000000E+00
  0.00000000E+00  0.00000000E+00  0.00000000E+00
  0.00000000E+00  0.00000000E+00  0.00000000E+00
  0.00000000E+00  0.00000000E+00  0.00000000E+00
  0.00000000E+00  0.00000000E+00  0.00000000E+00
  0.00000000E+00  0.00000000E+00  0.00000000E+00
  0.00000000E+00  0.00000000E+00  0.00000000E+00
  0.00000000E+00  0.00000000E+00  0.00000000E+00
  0.00000000E+00  0.00000000E+00  0.00000000E+00
  0.00000000E+00  0.00000000E+00  0.00000000E+00
  0.00000000E+00  0.00000000E+00  0.00000000E+00
  0.00000000E+00  0.00000000E+00  0.00000000E+00
  0.00000000E+00  0.00000000E+00  0.00000000E+00
  0.00000000E+00  0.00000000E+00  0.00000000E+00
  0.00000000E+00  0.00000000E+00  0.00000000E+00
  0.00000000E+00  0.00000000E+00  0.00000000E+00
  0.00000000E+00  0.00000000E+00  0.00000000E+00
  0.00000000E+00  0.00000000E+00  0.00000000E+00
  0.00000000E+00  0.00000000E+00  0.00000000E+00
  0.00000000E+00  0.00000000E+00  0.00000000E+00
  0.00000000E+00  0.00000000E+00  0.00000000E+00
