C N H                                   
   1.00000000000000     
    40.0000000000000000    0.0000000000000000    0.0000000000000000
     0.0000000000000000   40.0000000000000000    0.0000000000000000
     0.0000000000000000    0.0000000000000000   40.0000000000000000
   C    N    H 
     8     2     4
Selective dynamics
Direct
  0.4694374602887275  0.4896654684382786  0.4999976299351902   T   T   T
  0.4694134814899703  0.5260508319350318  0.5000055344075408   T   T   T
  0.5000010622288729  0.5427711950981480  0.4999991561407879   T   T   T
  0.5305880359678098  0.5260491413505862  0.4999902564325421   T   T   T
  0.5305609876700149  0.4896635345576354  0.4999936505016077   T   T   T
  0.4999986919760749  0.4723955665028491  0.4999937811013635   T   T   T
  0.5608163337682165  0.4717870924311385  0.5000068021300023   T   T   T
  0.4391808461827130  0.4717905540123848  0.4999976810248684   T   T   T
  0.5867656464343470  0.4576931611976172  0.5000200107730138   T   T   T
  0.4132332681643218  0.4576971828677684  0.4999986350119601   T   T   T
  0.4999982718171786  0.4451371634491854  0.4999939798750391   T   T   T
  0.5541573962105516  0.5396060128288876  0.4999900101710820   T   T   T
  0.5000018027765964  0.5700861731366301  0.5000024656017182   T   T   T
  0.4458447150246314  0.5396089221938537  0.5000114068932745   T   T   T
 
  0.00000000E+00  0.00000000E+00  0.00000000E+00
  0.00000000E+00  0.00000000E+00  0.00000000E+00
  0.00000000E+00  0.00000000E+00  0.00000000E+00
  0.00000000E+00  0.00000000E+00  0.00000000E+00
  0.00000000E+00  0.00000000E+00  0.00000000E+00
  0.00000000E+00  0.00000000E+00  0.00000000E+00
  0.00000000E+00  0.00000000E+00  0.00000000E+00
  0.00000000E+00  0.00000000E+00  0.00000000E+00
  0.00000000E+00  0.00000000E+00  0.00000000E+00
  0.00000000E+00  0.00000000E+00  0.00000000E+00
  0.00000000E+00  0.00000000E+00  0.00000000E+00
  0.00000000E+00  0.00000000E+00  0.00000000E+00
  0.00000000E+00  0.00000000E+00  0.00000000E+00
  0.00000000E+00  0.00000000E+00  0.00000000E+00
