C O H                                   
   1.00000000000000     
    40.0000000000000000    0.0000000000000000    0.0000000000000000
     0.0000000000000000   40.0000000000000000    0.0000000000000000
     0.0000000000000000    0.0000000000000000   40.0000000000000000
   C    O    H 
     9     1    10
Selective dynamics
Direct
  0.5068271307390262  0.5241191515779917  0.4997512309277070   T   T   T
  0.4720816700877108  0.5243900224523514  0.4995364667045621   T   T   T
  0.4530211783399452  0.4946202320191020  0.4994710313340036   T   T   T
  0.4711970806060535  0.4642103108235389  0.4996829021178470   T   T   T
  0.5058050289503910  0.4633871556831366  0.4998790318546682   T   T   T
  0.5254648707922627  0.4934352347874906  0.4999440089320188   T   T   T
  0.5613715559578054  0.4917847020633630  0.5000579057331933   T   T   T
  0.5810668643013983  0.5244458751823800  0.5000814222816956   T   T   T
  0.4154513754628510  0.4949886257616924  0.5004855477777994   T   T   T
  0.5776832657563347  0.4641020706027703  0.5001419563597338   T   T   T
  0.6078287187805671  0.5184308744614299  0.5002082514400286   T   T   T
  0.5755350998545126  0.5401611172746286  0.5221243458564970   T   T   T
  0.5757292186666092  0.5400884999578395  0.4779385347488727   T   T   T
  0.5192387974375592  0.4396352329917335  0.4998257862212867   T   T   T
  0.4572730274590384  0.4406067776900215  0.4995684599230117   T   T   T
  0.4053780153408937  0.4919759410106153  0.5260996205315323   T   T   T
  0.4052794707332197  0.5186367791595146  0.4907583027973743   T   T   T
  0.4046584490936382  0.4745520077872243  0.4854908498405734   T   T   T
  0.4590026615273857  0.5484533318200491  0.4993546498819796   T   T   T
  0.5201065201128188  0.5479770568930959  0.4996016947356097   T   T   T
 
  0.00000000E+00  0.00000000E+00  0.00000000E+00
  0.00000000E+00  0.00000000E+00  0.00000000E+00
  0.00000000E+00  0.00000000E+00  0.00000000E+00
  0.00000000E+00  0.00000000E+00  0.00000000E+00
  0.00000000E+00  0.00000000E+00  0.00000000E+00
  0.00000000E+00  0.00000000E+00  0.00000000E+00
  0.00000000E+00  0.00000000E+00  0.00000000E+00
  0.00000000E+00  0.00000000E+00  0.00000000E+00
  0.00000000E+00  0.00000000E+00  0.00000000E+00
  0.00000000E+00  0.00000000E+00  0.00000000E+00
  0.00000000E+00  0.00000000E+00  0.00000000E+00
  0.00000000E+00  0.00000000E+00  0.00000000E+00
  0.00000000E+00  0.00000000E+00  0.00000000E+00
  0.00000000E+00  0.00000000E+00  0.00000000E+00
  0.00000000E+00  0.00000000E+00  0.00000000E+00
  0.00000000E+00  0.00000000E+00  0.00000000E+00
  0.00000000E+00  0.00000000E+00  0.00000000E+00
  0.00000000E+00  0.00000000E+00  0.00000000E+00
  0.00000000E+00  0.00000000E+00  0.00000000E+00
  0.00000000E+00  0.00000000E+00  0.00000000E+00
