C O H                                   
   1.00000000000000     
    40.0000000000000000    0.0000000000000000    0.0000000000000000
     0.0000000000000000   40.0000000000000000    0.0000000000000000
     0.0000000000000000    0.0000000000000000   40.0000000000000000
   C    O    H 
    12     1    10
Selective dynamics
Direct
  0.5335036975555926  0.4843572320584206  0.5170708715573725   T   T   T
  0.5648330815191975  0.4696074715071226  0.5174591824492345   T   T   T
  0.5920672972437669  0.4856201652751422  0.5020965194367921   T   T   T
  0.5881414459453539  0.5171217046650364  0.4868571675661915   T   T   T
  0.5571880702989321  0.5325835097647333  0.4865713632817624   T   T   T
  0.5298662513690715  0.5156050320125761  0.5009469242143784   T   T   T
  0.4701356170591155  0.5156135970162458  0.4990468260938784   T   T   T
  0.4428171896913839  0.5325951466149871  0.5134283515261205   T   T   T
  0.4118603822506697  0.5171368016488381  0.5131471630543120   T   T   T
  0.4079319769479702  0.4856388902848443  0.4979078737793472   T   T   T
  0.4351599855467148  0.4696204659053881  0.4825422781710743   T   T   T
  0.4664917363405172  0.4843663671805589  0.4829225360219666   T   T   T
  0.5000042198920465  0.5321854229748407  0.4999973713583765   T   T   T
  0.4875941834275655  0.4730999867036385  0.4699037324163337   T   T   T
  0.4316141208270769  0.4458587026977993  0.4697369189252315   T   T   T
  0.3834001304655673  0.4738323339460783  0.4974695448890826   T   T   T
  0.3905131479936036  0.5293548666214869  0.5248147467354540   T   T   T
  0.4468769904980811  0.5568659465253173  0.5250701075145449   T   T   T
  0.5531354536309816  0.5568547799456067  0.4749271388986366   T   T   T
  0.6094955115626456  0.5293320143124826  0.4751907075399379   T   T   T
  0.6165974645355634  0.4738094944209323  0.5025386715524583   T   T   T
  0.5683723334076261  0.4458455850767876  0.5302641010542540   T   T   T
  0.5123977119909690  0.4730954828410699  0.5300889019632624   T   T   T
 
  0.00000000E+00  0.00000000E+00  0.00000000E+00
  0.00000000E+00  0.00000000E+00  0.00000000E+00
  0.00000000E+00  0.00000000E+00  0.00000000E+00
  0.00000000E+00  0.00000000E+00  0.00000000E+00
  0.00000000E+00  0.00000000E+00  0.00000000E+00
  0.00000000E+00  0.00000000E+00  0.00000000E+00
  0.00000000E+00  0.00000000E+00  0.00000000E+00
  0.00000000E+00  0.00000000E+00  0.00000000E+00
  0.00000000E+00  0.00000000E+00  0.00000000E+00
  0.00000000E+00  0.00000000E+00  0.00000000E+00
  0.00000000E+00  0.00000000E+00  0.00000000E+00
  0.00000000E+00  0.00000000E+00  0.00000000E+00
  0.00000000E+00  0.00000000E+00  0.00000000E+00
  0.00000000E+00  0.00000000E+00  0.00000000E+00
  0.00000000E+00  0.00000000E+00  0.00000000E+00
  0.00000000E+00  0.00000000E+00  0.00000000E+00
  0.00000000E+00  0.00000000E+00  0.00000000E+00
  0.00000000E+00  0.00000000E+00  0.00000000E+00
  0.00000000E+00  0.00000000E+00  0.00000000E+00
  0.00000000E+00  0.00000000E+00  0.00000000E+00
  0.00000000E+00  0.00000000E+00  0.00000000E+00
  0.00000000E+00  0.00000000E+00  0.00000000E+00
  0.00000000E+00  0.00000000E+00  0.00000000E+00
