C F O H                                 
   1.00000000000000     
    40.0000000000000000    0.0000000000000000    0.0000000000000000
     0.0000000000000000   40.0000000000000000    0.0000000000000000
     0.0000000000000000    0.0000000000000000   40.0000000000000000
   C    F    O    H 
     8     1     1     7
Selective dynamics
Direct
  0.5101153572304966  0.5232729606269260  0.5000044526084295   T   T   T
  0.5449748127442504  0.5240316546323101  0.5000102822430037   T   T   T
  0.5620292238894322  0.4937342526741020  0.5000070880406042   T   T   T
  0.5457573501958066  0.4629270660343821  0.5000006032370052   T   T   T
  0.5109968397098825  0.4627222155438346  0.4999974288726747   T   T   T
  0.4926880542705305  0.4927472890150781  0.4999984426107886   T   T   T
  0.4553494333539589  0.4910377038353886  0.4999946599277720   T   T   T
  0.4356921897144304  0.5233574895733355  0.4999943657966099   T   T   T
  0.5961404478306704  0.4941735105758127  0.5000073540082326   T   T   T
  0.4408469264683816  0.4637867177715762  0.4999953926103942   T   T   T
  0.4417296734871385  0.5385634275493985  0.5220985296026512   T   T   T
  0.4417377736518375  0.5385678522531236  0.4778951843620050   T   T   T
  0.4089451657389844  0.5176179852025555  0.4999891763971291   T   T   T
  0.4972837624614428  0.4391770187377162  0.4999928940430109   T   T   T
  0.5602831225643783  0.4398916015222483  0.4999990239006067   T   T   T
  0.5588320922708050  0.5474734237596337  0.5000123753982777   T   T   T
  0.4965977744175447  0.5469178306925926  0.5000037463408233   T   T   T
 
  0.00000000E+00  0.00000000E+00  0.00000000E+00
  0.00000000E+00  0.00000000E+00  0.00000000E+00
  0.00000000E+00  0.00000000E+00  0.00000000E+00
  0.00000000E+00  0.00000000E+00  0.00000000E+00
  0.00000000E+00  0.00000000E+00  0.00000000E+00
  0.00000000E+00  0.00000000E+00  0.00000000E+00
  0.00000000E+00  0.00000000E+00  0.00000000E+00
  0.00000000E+00  0.00000000E+00  0.00000000E+00
  0.00000000E+00  0.00000000E+00  0.00000000E+00
  0.00000000E+00  0.00000000E+00  0.00000000E+00
  0.00000000E+00  0.00000000E+00  0.00000000E+00
  0.00000000E+00  0.00000000E+00  0.00000000E+00
  0.00000000E+00  0.00000000E+00  0.00000000E+00
  0.00000000E+00  0.00000000E+00  0.00000000E+00
  0.00000000E+00  0.00000000E+00  0.00000000E+00
  0.00000000E+00  0.00000000E+00  0.00000000E+00
  0.00000000E+00  0.00000000E+00  0.00000000E+00
