C O H                                   
   1.00000000000000     
    40.0000000000000000    0.0000000000000000    0.0000000000000000
     0.0000000000000000   40.0000000000000000    0.0000000000000000
     0.0000000000000000    0.0000000000000000   40.0000000000000000
   C    O    H 
    10     1    12
Selective dynamics
Direct
  0.4726766724838047  0.4910820618314365  0.4995177260145599   T   T   T
  0.4407007764478938  0.5053393643771901  0.5009170047319931   T   T   T
  0.4370393179920088  0.5400847744509251  0.5010609347491609   T   T   T
  0.4651774432562746  0.5606810221209270  0.4996154746314528   T   T   T
  0.4969066882788676  0.5463284717802952  0.4980269224234842   T   T   T
  0.5017160763430970  0.5115390691832499  0.4981311610488397   T   T   T
  0.5348440798676944  0.4959169879691137  0.4965449978165720   T   T   T
  0.5644123016797689  0.5107057863904305  0.5028866885100017   T   T   T
  0.5974916892918125  0.4934329392056957  0.5005704622956605   T   T   T
  0.4500101965440312  0.4354056756891878  0.5004838457669811   T   T   T
  0.4782691290722776  0.4572531418215025  0.4996879849422661   T   T   T
  0.5946998803335438  0.4671050630063609  0.4932589388770246   T   T   T
  0.6139494927561203  0.5057253491694771  0.4822021129554056   T   T   T
  0.6109221502597678  0.4943039776256468  0.5246135415925784   T   T   T
  0.5651265402393788  0.5369781504252469  0.5106049574661440   T   T   T
  0.5349766449526230  0.4693891800126264  0.4899577566834784   T   T   T
  0.5187632069402557  0.5625333857354426  0.4962170735755940   T   T   T
  0.4624343680928270  0.5877968910455428  0.4994270433423006   T   T   T
  0.4120413943374771  0.5509088459782138  0.5021835815120994   T   T   T
  0.4185655921018911  0.4895569745117165  0.5020362329458924   T   T   T
  0.4337387478250745  0.4390714922764162  0.4785590130841965   T   T   T
  0.4352400575251505  0.4388197818428180  0.5234864243073727   T   T   T
  0.4602955533783282  0.4100426135505433  0.5000091207269582   T   T   T
 
  0.00000000E+00  0.00000000E+00  0.00000000E+00
  0.00000000E+00  0.00000000E+00  0.00000000E+00
  0.00000000E+00  0.00000000E+00  0.00000000E+00
  0.00000000E+00  0.00000000E+00  0.00000000E+00
  0.00000000E+00  0.00000000E+00  0.00000000E+00
  0.00000000E+00  0.00000000E+00  0.00000000E+00
  0.00000000E+00  0.00000000E+00  0.00000000E+00
  0.00000000E+00  0.00000000E+00  0.00000000E+00
  0.00000000E+00  0.00000000E+00  0.00000000E+00
  0.00000000E+00  0.00000000E+00  0.00000000E+00
  0.00000000E+00  0.00000000E+00  0.00000000E+00
  0.00000000E+00  0.00000000E+00  0.00000000E+00
  0.00000000E+00  0.00000000E+00  0.00000000E+00
  0.00000000E+00  0.00000000E+00  0.00000000E+00
  0.00000000E+00  0.00000000E+00  0.00000000E+00
  0.00000000E+00  0.00000000E+00  0.00000000E+00
  0.00000000E+00  0.00000000E+00  0.00000000E+00
  0.00000000E+00  0.00000000E+00  0.00000000E+00
  0.00000000E+00  0.00000000E+00  0.00000000E+00
  0.00000000E+00  0.00000000E+00  0.00000000E+00
  0.00000000E+00  0.00000000E+00  0.00000000E+00
  0.00000000E+00  0.00000000E+00  0.00000000E+00
  0.00000000E+00  0.00000000E+00  0.00000000E+00
