C H                                     
   1.00000000000000     
    40.0000000000000000    0.0000000000000000    0.0000000000000000
     0.0000000000000000   40.0000000000000000    0.0000000000000000
     0.0000000000000000    0.0000000000000000   40.0000000000000000
   C    H 
    12    14
Selective dynamics
Direct
  0.5480508181104611  0.4696210870414959  0.4919830382112877   T   T   T
  0.5829004586247919  0.4700940435679541  0.4924011483692539   T   T   T
  0.6001026148655697  0.4993046485873478  0.5010371720227909   T   T   T
  0.5819306581375727  0.5280180250349602  0.5091076670228176   T   T   T
  0.5470232203012557  0.5275167406984451  0.5086370392056310   T   T   T
  0.5292648446184742  0.4982194913314970  0.5004224028929016   T   T   T
  0.4922108836280259  0.4978749693855065  0.5004749644807802   T   T   T
  0.4747693667577195  0.4697881520651706  0.5073179146744735   T   T   T
  0.4372966901781865  0.4674914054892767  0.5081573342199732   T   T   T
  0.4203689393393475  0.5018536863298095  0.5083136561321524   T   T   T
  0.4375779105644639  0.5252637070059052  0.4834257297762861   T   T   T
  0.4743116778803653  0.5304483607930024  0.4929201547455762   T   T   T
  0.4876266117463004  0.5436749792554778  0.4727557722758533   T   T   T
  0.4758411927325312  0.5471334041524685  0.5148993938241944   T   T   T
  0.4246783627025863  0.5495320431449073  0.4822457692963127   T   T   T
  0.4361702639591201  0.5142958238868403  0.4581615151696283   T   T   T
  0.3935858177246629  0.4993473657984850  0.5026047853331193   T   T   T
  0.4221200356007913  0.5127713834123071  0.5335780539941410   T   T   T
  0.4287727164271686  0.4528650046835097  0.4862708434322371   T   T   T
  0.4294610326991730  0.4526981240166705  0.5300589835663843   T   T   T
  0.4883827191839671  0.4467859917582260  0.5130705049178346   T   T   T
  0.5333941859165421  0.5502131447987750  0.5151586690971683   T   T   T
  0.5949752860021462  0.5510198355687663  0.5158013612912740   T   T   T
  0.6273602497843029  0.4997057951053137  0.5012084988077063   T   T   T
  0.5967458668129098  0.4476086347460324  0.4855613853247505   T   T   T
  0.5350755757016117  0.4468531523418662  0.4844262419154575   T   T   T
 
  0.00000000E+00  0.00000000E+00  0.00000000E+00
  0.00000000E+00  0.00000000E+00  0.00000000E+00
  0.00000000E+00  0.00000000E+00  0.00000000E+00
  0.00000000E+00  0.00000000E+00  0.00000000E+00
  0.00000000E+00  0.00000000E+00  0.00000000E+00
  0.00000000E+00  0.00000000E+00  0.00000000E+00
  0.00000000E+00  0.00000000E+00  0.00000000E+00
  0.00000000E+00  0.00000000E+00  0.00000000E+00
  0.00000000E+00  0.00000000E+00  0.00000000E+00
  0.00000000E+00  0.00000000E+00  0.00000000E+00
  0.00000000E+00  0.00000000E+00  0.00000000E+00
  0.00000000E+00  0.00000000E+00  0.00000000E+00
  0.00000000E+00  0.00000000E+00  0.00000000E+00
  0.00000000E+00  0.00000000E+00  0.00000000E+00
  0.00000000E+00  0.00000000E+00  0.00000000E+00
  0.00000000E+00  0.00000000E+00  0.00000000E+00
  0.00000000E+00  0.00000000E+00  0.00000000E+00
  0.00000000E+00  0.00000000E+00  0.00000000E+00
  0.00000000E+00  0.00000000E+00  0.00000000E+00
  0.00000000E+00  0.00000000E+00  0.00000000E+00
  0.00000000E+00  0.00000000E+00  0.00000000E+00
  0.00000000E+00  0.00000000E+00  0.00000000E+00
  0.00000000E+00  0.00000000E+00  0.00000000E+00
  0.00000000E+00  0.00000000E+00  0.00000000E+00
  0.00000000E+00  0.00000000E+00  0.00000000E+00
  0.00000000E+00  0.00000000E+00  0.00000000E+00
