C N H                                   
   1.00000000000000     
    40.0000000000000000    0.0000000000000000    0.0000000000000000
     0.0000000000000000   40.0000000000000000    0.0000000000000000
     0.0000000000000000    0.0000000000000000   40.0000000000000000
   C    N    H 
    10     1    17
Selective dynamics
Direct
  0.5274176652464320  0.4689178834807990  0.5014998922064962   T   T   T
  0.5096275205979666  0.5023815574552657  0.5009802447858789   T   T   T
  0.5269372983872742  0.5317841848007632  0.5002226453077654   T   T   T
  0.5645732945371194  0.5338538181883976  0.4995427183504333   T   T   T
  0.5808653469703913  0.5003767982228311  0.4905954198737987   T   T   T
  0.5645049029884035  0.4720854192221609  0.5104203633655189   T   T   T
  0.4546266006614061  0.5310200620064975  0.5020855684688783   T   T   T
  0.4189843745016688  0.5176926883831570  0.5065539790390119   T   T   T
  0.4204288117067918  0.4833765204992986  0.4894692949790382   T   T   T
  0.4551616682081416  0.4703939690627479  0.4991675712623547   T   T   T
  0.4751937335624135  0.5009800314828112  0.5014725627050964   T   T   T
  0.5771682435858239  0.4481039077265834  0.5057831800032631   T   T   T
  0.5669664434046808  0.4773068420759330  0.5373995445878919   T   T   T
  0.6079409029678970  0.5012947947211615  0.4954113442612851   T   T   T
  0.5776101823481099  0.4954841997871782  0.4636324310881648   T   T   T
  0.5725450383703645  0.5532296027415029  0.4815808655191205   T   T   T
  0.5743350512462086  0.5423389503501141  0.5240656604782572   T   T   T
  0.5132638709309987  0.5554049848548104  0.5002187169895720   T   T   T
  0.4653221355596457  0.4529865442194989  0.4804549773200009   T   T   T
  0.4542605878842991  0.4569760470920556  0.5233873329686034   T   T   T
  0.4003560747410404  0.4663817616540200  0.4972807863906041   T   T   T
  0.4189911868891727  0.4863683964253696  0.4621442451164128   T   T   T
  0.4000822293882251  0.5344468383546186  0.4958552251687109   T   T   T
  0.4134830566825229  0.5146612613687438  0.5333566984207465   T   T   T
  0.4623351382494434  0.5477341907134416  0.5226697538697280   T   T   T
  0.4574016785113528  0.5454455956992277  0.4785528126878376   T   T   T
  0.5148947329673490  0.4521416915073360  0.5193965569768082   T   T   T
  0.5247222289048636  0.4568334579036915  0.4768006078087552   T   T   T
 
  0.00000000E+00  0.00000000E+00  0.00000000E+00
  0.00000000E+00  0.00000000E+00  0.00000000E+00
  0.00000000E+00  0.00000000E+00  0.00000000E+00
  0.00000000E+00  0.00000000E+00  0.00000000E+00
  0.00000000E+00  0.00000000E+00  0.00000000E+00
  0.00000000E+00  0.00000000E+00  0.00000000E+00
  0.00000000E+00  0.00000000E+00  0.00000000E+00
  0.00000000E+00  0.00000000E+00  0.00000000E+00
  0.00000000E+00  0.00000000E+00  0.00000000E+00
  0.00000000E+00  0.00000000E+00  0.00000000E+00
  0.00000000E+00  0.00000000E+00  0.00000000E+00
  0.00000000E+00  0.00000000E+00  0.00000000E+00
  0.00000000E+00  0.00000000E+00  0.00000000E+00
  0.00000000E+00  0.00000000E+00  0.00000000E+00
  0.00000000E+00  0.00000000E+00  0.00000000E+00
  0.00000000E+00  0.00000000E+00  0.00000000E+00
  0.00000000E+00  0.00000000E+00  0.00000000E+00
  0.00000000E+00  0.00000000E+00  0.00000000E+00
  0.00000000E+00  0.00000000E+00  0.00000000E+00
  0.00000000E+00  0.00000000E+00  0.00000000E+00
  0.00000000E+00  0.00000000E+00  0.00000000E+00
  0.00000000E+00  0.00000000E+00  0.00000000E+00
  0.00000000E+00  0.00000000E+00  0.00000000E+00
  0.00000000E+00  0.00000000E+00  0.00000000E+00
  0.00000000E+00  0.00000000E+00  0.00000000E+00
  0.00000000E+00  0.00000000E+00  0.00000000E+00
  0.00000000E+00  0.00000000E+00  0.00000000E+00
  0.00000000E+00  0.00000000E+00  0.00000000E+00
