C O H                                   
   1.00000000000000     
    40.0000000000000000    0.0000000000000000    0.0000000000000000
     0.0000000000000000   40.0000000000000000    0.0000000000000000
     0.0000000000000000    0.0000000000000000   40.0000000000000000
   C    O    H 
    14     1    12
Selective dynamics
Direct
  0.4566493029218321  0.5339724847108442  0.4917832622697489   T   T   T
  0.4384261863170238  0.5047215481210117  0.4989433380907613   T   T   T
  0.4561778721817760  0.4752075518642158  0.5060387429854316   T   T   T
  0.4910029717953606  0.4749650560137013  0.5059637900199405   T   T   T
  0.5093229828128756  0.5041927968518394  0.4989035622237736   T   T   T
  0.4913863591372305  0.5337533019500853  0.4918202775395670   T   T   T
  0.5463372512422140  0.5039939140035372  0.4989017773905502   T   T   T
  0.5642754627383439  0.4761663276633641  0.4869407111480513   T   T   T
  0.5991898925343051  0.4761098459664765  0.4868089301380678   T   T   T
  0.6168920380952869  0.5037855617560751  0.4988126915329758   T   T   T
  0.5993825825065286  0.5315737598006152  0.5108560671381923   T   T   T
  0.5644781993278016  0.5317280837882024  0.5108040909086142   T   T   T
  0.4011376420152359  0.5060115822057156  0.4988182503455292   T   T   T
  0.3816915192493724  0.4746065334134002  0.5066425179532104   T   T   T
  0.3863418522209017  0.5324839447056675  0.4924121104230181   T   T   T
  0.5049653297566792  0.5566043284260118  0.4856752143079106   T   T   T
  0.5511200648297176  0.5533600602781732  0.5206869206811362   T   T   T
  0.6129604893409422  0.5532041010539714  0.5204537739992574   T   T   T
  0.6441667634109436  0.5037288439960221  0.4987536817264910   T   T   T
  0.6126234230866885  0.4544536659136824  0.4770753421590044   T   T   T
  0.5507596668521373  0.4546686707779415  0.4769886473390557   T   T   T
  0.5042061725701501  0.4519037833218889  0.5120922502279868   T   T   T
  0.4428680880159490  0.4521726154832919  0.5119292097762198   T   T   T
  0.3548874941235027  0.4800049602483796  0.5054989454904444   T   T   T
  0.3877632814605079  0.4546560288288006  0.4887208695572980   T   T   T
  0.3880597390174714  0.4651494511720813  0.5316615670187588   T   T   T
  0.4429273724392502  0.5568221976850083  0.4860144576090022   T   T   T
 
  0.00000000E+00  0.00000000E+00  0.00000000E+00
  0.00000000E+00  0.00000000E+00  0.00000000E+00
  0.00000000E+00  0.00000000E+00  0.00000000E+00
  0.00000000E+00  0.00000000E+00  0.00000000E+00
  0.00000000E+00  0.00000000E+00  0.00000000E+00
  0.00000000E+00  0.00000000E+00  0.00000000E+00
  0.00000000E+00  0.00000000E+00  0.00000000E+00
  0.00000000E+00  0.00000000E+00  0.00000000E+00
  0.00000000E+00  0.00000000E+00  0.00000000E+00
  0.00000000E+00  0.00000000E+00  0.00000000E+00
  0.00000000E+00  0.00000000E+00  0.00000000E+00
  0.00000000E+00  0.00000000E+00  0.00000000E+00
  0.00000000E+00  0.00000000E+00  0.00000000E+00
  0.00000000E+00  0.00000000E+00  0.00000000E+00
  0.00000000E+00  0.00000000E+00  0.00000000E+00
  0.00000000E+00  0.00000000E+00  0.00000000E+00
  0.00000000E+00  0.00000000E+00  0.00000000E+00
  0.00000000E+00  0.00000000E+00  0.00000000E+00
  0.00000000E+00  0.00000000E+00  0.00000000E+00
  0.00000000E+00  0.00000000E+00  0.00000000E+00
  0.00000000E+00  0.00000000E+00  0.00000000E+00
  0.00000000E+00  0.00000000E+00  0.00000000E+00
  0.00000000E+00  0.00000000E+00  0.00000000E+00
  0.00000000E+00  0.00000000E+00  0.00000000E+00
  0.00000000E+00  0.00000000E+00  0.00000000E+00
  0.00000000E+00  0.00000000E+00  0.00000000E+00
  0.00000000E+00  0.00000000E+00  0.00000000E+00
