C N H                                   
   1.00000000000000     
    40.0000000000000000    0.0000000000000000    0.0000000000000000
     0.0000000000000000   40.0000000000000000    0.0000000000000000
     0.0000000000000000    0.0000000000000000   40.0000000000000000
   C    N    H 
    10     1    17
Selective dynamics
Direct
  0.5274176652464299  0.4689178834807978  0.5014998922064930   T   T   T
  0.5096275205979692  0.5023815574552638  0.5009802447858754   T   T   T
  0.5269372983872774  0.5317841848007647  0.5002226453077677   T   T   T
  0.5645732945371190  0.5338538181883962  0.4995427183504322   T   T   T
  0.5808653469703895  0.5003767982228285  0.4905954198737978   T   T   T
  0.5645049029884002  0.4720854192221585  0.5104203633655183   T   T   T
  0.4546266006614090  0.5310200620064964  0.5020855684688803   T   T   T
  0.4189843745016700  0.5176926883831590  0.5065539790390152   T   T   T
  0.4204288117067948  0.4833765204992962  0.4894692949790365   T   T   T
  0.4551616682081404  0.4703939690627513  0.4991675712623518   T   T   T
  0.4751937335624167  0.5009800314828142  0.5014725627050971   T   T   T
  0.5771682435858267  0.4481039077265844  0.5057831800032597   T   T   T
  0.5669664434046839  0.4773068420759337  0.5373995445878947   T   T   T
  0.6079409029678937  0.5012947947211590  0.4954113442612833   T   T   T
  0.5776101823481098  0.4954841997871750  0.4636324310881625   T   T   T
  0.5725450383703610  0.5532296027415056  0.4815808655191213   T   T   T
  0.5743350512462120  0.5423389503501140  0.5240656604782561   T   T   T
  0.5132638709309982  0.5554049848548135  0.5002187169895739   T   T   T
  0.4653221355596424  0.4529865442194981  0.4804549773200005   T   T   T
  0.4542605878842964  0.4569760470920533  0.5233873329686062   T   T   T
  0.4003560747410392  0.4663817616540211  0.4972807863906013   T   T   T
  0.4189911868891723  0.4863683964253669  0.4621442451164097   T   T   T
  0.4000822293882255  0.5344468383546201  0.4958552251687122   T   T   T
  0.4134830566825198  0.5146612613687466  0.5333566984207431   T   T   T
  0.4623351382494405  0.5477341907134394  0.5226697538697286   T   T   T
  0.4574016785113496  0.5454455956992267  0.4785528126878392   T   T   T
  0.5148947329673521  0.4521416915073351  0.5193965569768065   T   T   T
  0.5247222289048608  0.4568334579036902  0.4768006078087545   T   T   T
 
  0.00000000E+00  0.00000000E+00  0.00000000E+00
  0.00000000E+00  0.00000000E+00  0.00000000E+00
  0.00000000E+00  0.00000000E+00  0.00000000E+00
  0.00000000E+00  0.00000000E+00  0.00000000E+00
  0.00000000E+00  0.00000000E+00  0.00000000E+00
  0.00000000E+00  0.00000000E+00  0.00000000E+00
  0.00000000E+00  0.00000000E+00  0.00000000E+00
  0.00000000E+00  0.00000000E+00  0.00000000E+00
  0.00000000E+00  0.00000000E+00  0.00000000E+00
  0.00000000E+00  0.00000000E+00  0.00000000E+00
  0.00000000E+00  0.00000000E+00  0.00000000E+00
  0.00000000E+00  0.00000000E+00  0.00000000E+00
  0.00000000E+00  0.00000000E+00  0.00000000E+00
  0.00000000E+00  0.00000000E+00  0.00000000E+00
  0.00000000E+00  0.00000000E+00  0.00000000E+00
  0.00000000E+00  0.00000000E+00  0.00000000E+00
  0.00000000E+00  0.00000000E+00  0.00000000E+00
  0.00000000E+00  0.00000000E+00  0.00000000E+00
  0.00000000E+00  0.00000000E+00  0.00000000E+00
  0.00000000E+00  0.00000000E+00  0.00000000E+00
  0.00000000E+00  0.00000000E+00  0.00000000E+00
  0.00000000E+00  0.00000000E+00  0.00000000E+00
  0.00000000E+00  0.00000000E+00  0.00000000E+00
  0.00000000E+00  0.00000000E+00  0.00000000E+00
  0.00000000E+00  0.00000000E+00  0.00000000E+00
  0.00000000E+00  0.00000000E+00  0.00000000E+00
  0.00000000E+00  0.00000000E+00  0.00000000E+00
  0.00000000E+00  0.00000000E+00  0.00000000E+00
