C N H                                   
   1.00000000000000     
    40.0000000000000000    0.0000000000000000    0.0000000000000000
     0.0000000000000000   40.0000000000000000    0.0000000000000000
     0.0000000000000000    0.0000000000000000   40.0000000000000000
   C    N    H 
     7     1     9
Selective dynamics
Direct
  0.4772820806475835  0.5301873818410101  0.4994337383615601   T   T   T
  0.5121740281829119  0.5299471475882953  0.4996268443851974   T   T   T
  0.5305000671253950  0.5000062816014292  0.4996278906363045   T   T   T
  0.5682031525854114  0.4999984704984897  0.4989481785872556   T   T   T
  0.5121769733041646  0.4700627105979009  0.4996193001022107   T   T   T
  0.4772882442682018  0.4698170693140966  0.4994256870613611   T   T   T
  0.4590679413801340  0.5000044204534078  0.4992853954874121   T   T   T
  0.4242982963196766  0.4999967233077243  0.4977017683864133   T   T   T
  0.5784503445015261  0.5224823185012966  0.5109623408369615   T   T   T
  0.5778032056007092  0.4994995840903584  0.4731233396243653   T   T   T
  0.5784661119328049  0.4779907455887482  0.5118076340813360   T   T   T
  0.4127837961068224  0.4788932098248750  0.5058458375284829   T   T   T
  0.4127765144247988  0.5210996511588917  0.5058455106177036   T   T   T
  0.4638355968451719  0.4460427684723882  0.4994917729289199   T   T   T
  0.5255339494410123  0.4462157125739239  0.4998642379468379   T   T   T
  0.5255310030947271  0.5537915870742438  0.4998804836603199   T   T   T
  0.4638286942389342  0.5539642175129345  0.4995100397673440   T   T   T
 
  0.00000000E+00  0.00000000E+00  0.00000000E+00
  0.00000000E+00  0.00000000E+00  0.00000000E+00
  0.00000000E+00  0.00000000E+00  0.00000000E+00
  0.00000000E+00  0.00000000E+00  0.00000000E+00
  0.00000000E+00  0.00000000E+00  0.00000000E+00
  0.00000000E+00  0.00000000E+00  0.00000000E+00
  0.00000000E+00  0.00000000E+00  0.00000000E+00
  0.00000000E+00  0.00000000E+00  0.00000000E+00
  0.00000000E+00  0.00000000E+00  0.00000000E+00
  0.00000000E+00  0.00000000E+00  0.00000000E+00
  0.00000000E+00  0.00000000E+00  0.00000000E+00
  0.00000000E+00  0.00000000E+00  0.00000000E+00
  0.00000000E+00  0.00000000E+00  0.00000000E+00
  0.00000000E+00  0.00000000E+00  0.00000000E+00
  0.00000000E+00  0.00000000E+00  0.00000000E+00
  0.00000000E+00  0.00000000E+00  0.00000000E+00
  0.00000000E+00  0.00000000E+00  0.00000000E+00
