C H                                     
   1.00000000000000     
    40.0000000000000000    0.0000000000000000    0.0000000000000000
     0.0000000000000000   40.0000000000000000    0.0000000000000000
     0.0000000000000000    0.0000000000000000   40.0000000000000000
   C    H 
    10    12
Selective dynamics
Direct
  0.4947810886273629  0.4749397786220939  0.5001065432976191   T   T   T
  0.4602412406397036  0.4707903941789411  0.5001889915480859   T   T   T
  0.4383910913247462  0.4983821033851541  0.5001922313200780   T   T   T
  0.4526973075096521  0.5303654458666287  0.5002092920072414   T   T   T
  0.4873594663548175  0.5346683397921552  0.5001198504212709   T   T   T
  0.5092877623024776  0.5071275482891053  0.5000527158716395   T   T   T
  0.5454950817928150  0.5130925353624747  0.5000120513847790   T   T   T
  0.5700607281169781  0.4900557882896237  0.5000229768797126   T   T   T
  0.6065674856071723  0.4980656517815660  0.4999567580840747   T   T   T
  0.4010671870697635  0.4934688765583886  0.4997788192146686   T   T   T
  0.6191412270175505  0.4872275807497175  0.5219618861480413   T   T   T
  0.6190696584990789  0.4871443461007843  0.4779499413971209   T   T   T
  0.6109968108455988  0.5251838271635876  0.4998951884753708   T   T   T
  0.5636850464218739  0.4634297470303466  0.5000801199785698   T   T   T
  0.5527917704653689  0.5395220418512636  0.4999555127107769   T   T   T
  0.4978165194157569  0.5599183537643313  0.5001527089432614   T   T   T
  0.4364309738163357  0.5523044025569064  0.5003156709695915   T   T   T
  0.3877858847448721  0.5168937988503188  0.5050641789694268   T   T   T
  0.3925632592297532  0.4844009672540111  0.4752082909137272   T   T   T
  0.3932225297059517  0.4747158031916712  0.5182879313388966   T   T   T
  0.4498411626669139  0.4455292882335229  0.5003212763201219   T   T   T
  0.5107067178254496  0.4527743811274192  0.5001680638058943   T   T   T
 
  0.00000000E+00  0.00000000E+00  0.00000000E+00
  0.00000000E+00  0.00000000E+00  0.00000000E+00
  0.00000000E+00  0.00000000E+00  0.00000000E+00
  0.00000000E+00  0.00000000E+00  0.00000000E+00
  0.00000000E+00  0.00000000E+00  0.00000000E+00
  0.00000000E+00  0.00000000E+00  0.00000000E+00
  0.00000000E+00  0.00000000E+00  0.00000000E+00
  0.00000000E+00  0.00000000E+00  0.00000000E+00
  0.00000000E+00  0.00000000E+00  0.00000000E+00
  0.00000000E+00  0.00000000E+00  0.00000000E+00
  0.00000000E+00  0.00000000E+00  0.00000000E+00
  0.00000000E+00  0.00000000E+00  0.00000000E+00
  0.00000000E+00  0.00000000E+00  0.00000000E+00
  0.00000000E+00  0.00000000E+00  0.00000000E+00
  0.00000000E+00  0.00000000E+00  0.00000000E+00
  0.00000000E+00  0.00000000E+00  0.00000000E+00
  0.00000000E+00  0.00000000E+00  0.00000000E+00
  0.00000000E+00  0.00000000E+00  0.00000000E+00
  0.00000000E+00  0.00000000E+00  0.00000000E+00
  0.00000000E+00  0.00000000E+00  0.00000000E+00
  0.00000000E+00  0.00000000E+00  0.00000000E+00
  0.00000000E+00  0.00000000E+00  0.00000000E+00
