C H                                     
   1.00000000000000     
    40.0000000000000000    0.0000000000000000    0.0000000000000000
     0.0000000000000000   40.0000000000000000    0.0000000000000000
     0.0000000000000000    0.0000000000000000   40.0000000000000000
   C    H 
    10     8
Selective dynamics
Direct
  0.5608892873579339  0.4822746442660350  0.5000000000000000   T   T   T
  0.5608892873579339  0.5177243557339606  0.5000000000000000   T   T   T
  0.5311067977498237  0.5351789882338137  0.5000000000000000   T   T   T
  0.5000000000000000  0.5179891216674904  0.5000000000000000   T   T   T
  0.4688932022501762  0.5351789882338137  0.5000000000000000   T   T   T
  0.4391107126420663  0.5177253557339652  0.5000000000000000   T   T   T
  0.4391107126420663  0.4822756442660396  0.5000000000000000   T   T   T
  0.4688932022501762  0.4648210117661861  0.5000000000000000   T   T   T
  0.5000000000000000  0.4820108783325167  0.5000000000000000   T   T   T
  0.5311067977498237  0.4648210117661861  0.5000000000000000   T   T   T
  0.5311062991964448  0.4375156439453282  0.5000000000000000   T   T   T
  0.4688927008035579  0.4375166439453256  0.5000000000000000   T   T   T
  0.4153674514326238  0.4688342864374355  0.5000000000000000   T   T   T
  0.4153684514326283  0.5311667135625689  0.5000000000000000   T   T   T
  0.4688937008035554  0.5624843560546720  0.5000000000000000   T   T   T
  0.5311072991964423  0.5624833560546745  0.5000000000000000   T   T   T
  0.5846325485673761  0.5311657135625644  0.5000000000000000   T   T   T
  0.5846315485673715  0.4688332864374309  0.5000000000000000   T   T   T
 
  0.00000000E+00  0.00000000E+00  0.00000000E+00
  0.00000000E+00  0.00000000E+00  0.00000000E+00
  0.00000000E+00  0.00000000E+00  0.00000000E+00
  0.00000000E+00  0.00000000E+00  0.00000000E+00
  0.00000000E+00  0.00000000E+00  0.00000000E+00
  0.00000000E+00  0.00000000E+00  0.00000000E+00
  0.00000000E+00  0.00000000E+00  0.00000000E+00
  0.00000000E+00  0.00000000E+00  0.00000000E+00
  0.00000000E+00  0.00000000E+00  0.00000000E+00
  0.00000000E+00  0.00000000E+00  0.00000000E+00
  0.00000000E+00  0.00000000E+00  0.00000000E+00
  0.00000000E+00  0.00000000E+00  0.00000000E+00
  0.00000000E+00  0.00000000E+00  0.00000000E+00
  0.00000000E+00  0.00000000E+00  0.00000000E+00
  0.00000000E+00  0.00000000E+00  0.00000000E+00
  0.00000000E+00  0.00000000E+00  0.00000000E+00
  0.00000000E+00  0.00000000E+00  0.00000000E+00
  0.00000000E+00  0.00000000E+00  0.00000000E+00
