C O H                                   
   1.00000000000000     
    40.0000000000000000    0.0000000000000000    0.0000000000000000
     0.0000000000000000   40.0000000000000000    0.0000000000000000
     0.0000000000000000    0.0000000000000000   40.0000000000000000
   C    O    H 
    12     1    10
Selective dynamics
Direct
  0.5341754515301815  0.4868895675416169  0.5198310595668616   T   T   T
  0.5656335473461525  0.4717427629565307  0.5209933331971115   T   T   T
  0.5927751936022219  0.4855923839838212  0.5037924796376672   T   T   T
  0.5883233780005099  0.5149504999929562  0.4852989794981397   T   T   T
  0.5569596696831240  0.5302735190687216  0.4837474943206104   T   T   T
  0.5300576856530128  0.5160823132882513  0.5009711385984730   T   T   T
  0.4699420495573889  0.5160797874211767  0.4990307321730754   T   T   T
  0.4430377011322406  0.5302714450596824  0.5162512487400761   T   T   T
  0.4116746642525158  0.5149491401597004  0.5146971387729309   T   T   T
  0.4072241145056381  0.4855890165697545  0.4962052572146263   T   T   T
  0.4343692994500898  0.4717388897715225  0.4790077085186866   T   T   T
  0.4658256372712017  0.4868860414749818  0.4801732846047955   T   T   T
  0.4999994448246667  0.5334952173810237  0.5000016733125818   T   T   T
  0.4869270652296862  0.4761439234675535  0.4666676855163558   T   T   T
  0.4311138733722046  0.4489588718336321  0.4643511764449002   T   T   T
  0.3827770248196529  0.4735825246210368  0.4951074785320415   T   T   T
  0.3906871738701483  0.5259837825261826  0.5281713826492407   T   T   T
  0.4470107023679830  0.5530543495347757  0.5306789108529273   T   T   T
  0.5529846587353902  0.5530535341677094  0.4693167828139053   T   T   T
  0.6093087203571912  0.5259836417765840  0.4718219664625494   T   T   T
  0.6172235509040647  0.4735863903414170  0.5048892261234101   T   T   T
  0.5688904924880021  0.4489646695180340  0.5356521963158798   T   T   T
  0.5130769010467375  0.4761487275432899  0.5333406661331495   T   T   T
 
  0.00000000E+00  0.00000000E+00  0.00000000E+00
  0.00000000E+00  0.00000000E+00  0.00000000E+00
  0.00000000E+00  0.00000000E+00  0.00000000E+00
  0.00000000E+00  0.00000000E+00  0.00000000E+00
  0.00000000E+00  0.00000000E+00  0.00000000E+00
  0.00000000E+00  0.00000000E+00  0.00000000E+00
  0.00000000E+00  0.00000000E+00  0.00000000E+00
  0.00000000E+00  0.00000000E+00  0.00000000E+00
  0.00000000E+00  0.00000000E+00  0.00000000E+00
  0.00000000E+00  0.00000000E+00  0.00000000E+00
  0.00000000E+00  0.00000000E+00  0.00000000E+00
  0.00000000E+00  0.00000000E+00  0.00000000E+00
  0.00000000E+00  0.00000000E+00  0.00000000E+00
  0.00000000E+00  0.00000000E+00  0.00000000E+00
  0.00000000E+00  0.00000000E+00  0.00000000E+00
  0.00000000E+00  0.00000000E+00  0.00000000E+00
  0.00000000E+00  0.00000000E+00  0.00000000E+00
  0.00000000E+00  0.00000000E+00  0.00000000E+00
  0.00000000E+00  0.00000000E+00  0.00000000E+00
  0.00000000E+00  0.00000000E+00  0.00000000E+00
  0.00000000E+00  0.00000000E+00  0.00000000E+00
  0.00000000E+00  0.00000000E+00  0.00000000E+00
  0.00000000E+00  0.00000000E+00  0.00000000E+00
