C N H                                   
   1.00000000000000     
    40.0000000000000000    0.0000000000000000    0.0000000000000000
     0.0000000000000000   40.0000000000000000    0.0000000000000000
     0.0000000000000000    0.0000000000000000   40.0000000000000000
   C    N    H 
     5     1    11
Selective dynamics
Direct
  0.4655282721580855  0.5000021654951263  0.5039265820235977   T   T   T
  0.4842046520599410  0.4684755543849478  0.4926544874203775   T   T   T
  0.5207170038652769  0.4696613092832826  0.5039851922401349   T   T   T
  0.5207176592526376  0.5303381468948412  0.5039883537749463   T   T   T
  0.4842069916220508  0.5315254165092563  0.4926512224257839   T   T   T
  0.5367821502827345  0.5000002896941341  0.4911872907980613   T   T   T
  0.5615074574635865  0.4999994806105719  0.4973969515636969   T   T   T
  0.4721316462821324  0.5541023268312073  0.5027266290376280   T   T   T
  0.4835101168021603  0.5333590888464129  0.4651618468521238   T   T   T
  0.5344766909893524  0.5521771066938995  0.4945160762208425   T   T   T
  0.5213559599650507  0.5315606026024677  0.5318269682227330   T   T   T
  0.5344743231444448  0.4478226728558114  0.4945070213605854   T   T   T
  0.5213598247079619  0.4684340022334582  0.5318234903004042   T   T   T
  0.4721299840984899  0.4459005388795070  0.5027351545556550   T   T   T
  0.4835023110920690  0.4666370627043873  0.4651655237416127   T   T   T
  0.4397656531442999  0.5000020316039354  0.4942708578331356   T   T   T
  0.4636303030697094  0.5000032038767434  0.5314763516286667   T   T   T
 
  0.00000000E+00  0.00000000E+00  0.00000000E+00
  0.00000000E+00  0.00000000E+00  0.00000000E+00
  0.00000000E+00  0.00000000E+00  0.00000000E+00
  0.00000000E+00  0.00000000E+00  0.00000000E+00
  0.00000000E+00  0.00000000E+00  0.00000000E+00
  0.00000000E+00  0.00000000E+00  0.00000000E+00
  0.00000000E+00  0.00000000E+00  0.00000000E+00
  0.00000000E+00  0.00000000E+00  0.00000000E+00
  0.00000000E+00  0.00000000E+00  0.00000000E+00
  0.00000000E+00  0.00000000E+00  0.00000000E+00
  0.00000000E+00  0.00000000E+00  0.00000000E+00
  0.00000000E+00  0.00000000E+00  0.00000000E+00
  0.00000000E+00  0.00000000E+00  0.00000000E+00
  0.00000000E+00  0.00000000E+00  0.00000000E+00
  0.00000000E+00  0.00000000E+00  0.00000000E+00
  0.00000000E+00  0.00000000E+00  0.00000000E+00
  0.00000000E+00  0.00000000E+00  0.00000000E+00
