C O H                                   
   1.00000000000000     
    40.0000000000000000    0.0000000000000000    0.0000000000000000
     0.0000000000000000   40.0000000000000000    0.0000000000000000
     0.0000000000000000    0.0000000000000000   40.0000000000000000
   C    O    H 
    10     1    12
Selective dynamics
Direct
  0.4726766724838072  0.4910820618314347  0.4995177260145596   T   T   T
  0.4407007764478905  0.5053393643771926  0.5009170047319955   T   T   T
  0.4370393179920100  0.5400847744509250  0.5010609347491624   T   T   T
  0.4651774432562732  0.5606810221209244  0.4996154746314545   T   T   T
  0.4969066882788695  0.5463284717802921  0.4980269224234846   T   T   T
  0.5017160763430937  0.5115390691832502  0.4981311610488390   T   T   T
  0.5348440798676961  0.4959169879691103  0.4965449978165708   T   T   T
  0.5644123016797664  0.5107057863904316  0.5028866885100030   T   T   T
  0.5974916892918145  0.4934329392056966  0.5005704622956628   T   T   T
  0.4500101965440280  0.4354056756891893  0.5004838457669791   T   T   T
  0.4782691290722809  0.4572531418215036  0.4996879849422626   T   T   T
  0.5946998803335433  0.4671050630063576  0.4932589388770268   T   T   T
  0.6139494927561202  0.5057253491694738  0.4822021129554059   T   T   T
  0.6109221502597677  0.4943039776256484  0.5246135415925792   T   T   T
  0.5651265402393761  0.5369781504252487  0.5106049574661427   T   T   T
  0.5349766449526214  0.4693891800126266  0.4899577566834807   T   T   T
  0.5187632069402568  0.5625333857354420  0.4962170735755933   T   T   T
  0.4624343680928291  0.5877968910455422  0.4994270433423011   T   T   T
  0.4120413943374786  0.5509088459782134  0.5021835815120994   T   T   T
  0.4185655921018920  0.4895569745117143  0.5020362329458905   T   T   T
  0.4337387478250747  0.4390714922764190  0.4785590130841939   T   T   T
  0.4352400575251494  0.4388197818428168  0.5234864243073716   T   T   T
  0.4602955533783302  0.4100426135505444  0.5000091207269577   T   T   T
 
  0.00000000E+00  0.00000000E+00  0.00000000E+00
  0.00000000E+00  0.00000000E+00  0.00000000E+00
  0.00000000E+00  0.00000000E+00  0.00000000E+00
  0.00000000E+00  0.00000000E+00  0.00000000E+00
  0.00000000E+00  0.00000000E+00  0.00000000E+00
  0.00000000E+00  0.00000000E+00  0.00000000E+00
  0.00000000E+00  0.00000000E+00  0.00000000E+00
  0.00000000E+00  0.00000000E+00  0.00000000E+00
  0.00000000E+00  0.00000000E+00  0.00000000E+00
  0.00000000E+00  0.00000000E+00  0.00000000E+00
  0.00000000E+00  0.00000000E+00  0.00000000E+00
  0.00000000E+00  0.00000000E+00  0.00000000E+00
  0.00000000E+00  0.00000000E+00  0.00000000E+00
  0.00000000E+00  0.00000000E+00  0.00000000E+00
  0.00000000E+00  0.00000000E+00  0.00000000E+00
  0.00000000E+00  0.00000000E+00  0.00000000E+00
  0.00000000E+00  0.00000000E+00  0.00000000E+00
  0.00000000E+00  0.00000000E+00  0.00000000E+00
  0.00000000E+00  0.00000000E+00  0.00000000E+00
  0.00000000E+00  0.00000000E+00  0.00000000E+00
  0.00000000E+00  0.00000000E+00  0.00000000E+00
  0.00000000E+00  0.00000000E+00  0.00000000E+00
  0.00000000E+00  0.00000000E+00  0.00000000E+00
