C O H                                   
   1.00000000000000     
    40.0000000000000000    0.0000000000000000    0.0000000000000000
     0.0000000000000000   40.0000000000000000    0.0000000000000000
     0.0000000000000000    0.0000000000000000   40.0000000000000000
   C    O    H 
    12     1    10
Selective dynamics
Direct
  0.5334548221166906  0.4843644551443607  0.5170899932536828   T   T   T
  0.5648131259147198  0.4696188248917704  0.5174744114908691   T   T   T
  0.5920613872304905  0.4856043801732168  0.5020894221529993   T   T   T
  0.5881529870706166  0.5171261308104834  0.4868364139810866   T   T   T
  0.5571804980955932  0.5325971400988891  0.4865559971281702   T   T   T
  0.5298583609264746  0.5155977125922692  0.5009370199487716   T   T   T
  0.4701429683040882  0.5156032542433207  0.4990594439968767   T   T   T
  0.4428287546180226  0.5326120557177557  0.5134447160774274   T   T   T
  0.4118546714973295  0.5171440788018064  0.5131686950822762   T   T   T
  0.4079390588675637  0.4856178500897758  0.4979176455414130   T   T   T
  0.4351788164920340  0.4696322854237868  0.4825230110359967   T   T   T
  0.4665389422150089  0.4843752185753586  0.4828999609930047   T   T   T
  0.4999981659925474  0.5321511800137316  0.4999965608462510   T   T   T
  0.4876190317136837  0.4730902386619055  0.4698744456662069   T   T   T
  0.4316361708935430  0.4458440004928205  0.4697391382804947   T   T   T
  0.3833931882780728  0.4738183769052207  0.4974691949226664   T   T   T
  0.3904909004270899  0.5293690179973185  0.5248344441069446   T   T   T
  0.4468691977373128  0.5568971543236092  0.5250728838161994   T   T   T
  0.5531418849866947  0.5568786403586929  0.4749278672122166   T   T   T
  0.6095159155864638  0.5293425912969228  0.4751716491353384   T   T   T
  0.6166061828605809  0.4737928118846356  0.5025375380344499   T   T   T
  0.5683493370683170  0.4458346419394549  0.5302604456579716   T   T   T
  0.5123736311070892  0.4730889595628411  0.5301181016386882   T   T   T
 
  0.00000000E+00  0.00000000E+00  0.00000000E+00
  0.00000000E+00  0.00000000E+00  0.00000000E+00
  0.00000000E+00  0.00000000E+00  0.00000000E+00
  0.00000000E+00  0.00000000E+00  0.00000000E+00
  0.00000000E+00  0.00000000E+00  0.00000000E+00
  0.00000000E+00  0.00000000E+00  0.00000000E+00
  0.00000000E+00  0.00000000E+00  0.00000000E+00
  0.00000000E+00  0.00000000E+00  0.00000000E+00
  0.00000000E+00  0.00000000E+00  0.00000000E+00
  0.00000000E+00  0.00000000E+00  0.00000000E+00
  0.00000000E+00  0.00000000E+00  0.00000000E+00
  0.00000000E+00  0.00000000E+00  0.00000000E+00
  0.00000000E+00  0.00000000E+00  0.00000000E+00
  0.00000000E+00  0.00000000E+00  0.00000000E+00
  0.00000000E+00  0.00000000E+00  0.00000000E+00
  0.00000000E+00  0.00000000E+00  0.00000000E+00
  0.00000000E+00  0.00000000E+00  0.00000000E+00
  0.00000000E+00  0.00000000E+00  0.00000000E+00
  0.00000000E+00  0.00000000E+00  0.00000000E+00
  0.00000000E+00  0.00000000E+00  0.00000000E+00
  0.00000000E+00  0.00000000E+00  0.00000000E+00
  0.00000000E+00  0.00000000E+00  0.00000000E+00
  0.00000000E+00  0.00000000E+00  0.00000000E+00
