C N H                                   
   1.00000000000000     
    40.0000000000000000    0.0000000000000000    0.0000000000000000
     0.0000000000000000   40.0000000000000000    0.0000000000000000
     0.0000000000000000    0.0000000000000000   40.0000000000000000
   C    N    H 
    10     1    17
Selective dynamics
Direct
  0.5273955179263122  0.4683615582483342  0.5016521734322045   T   T   T
  0.5093589854944195  0.5013922035086078  0.5012234482715109   T   T   T
  0.5270702170658318  0.5317035606939551  0.5005301490781854   T   T   T
  0.5639884124515964  0.5334003283313071  0.4990121579515021   T   T   T
  0.5807076680414450  0.5000579972566173  0.4905223406770691   T   T   T
  0.5645124277092570  0.4718690666990841  0.5105492832616547   T   T   T
  0.4544273126530038  0.5315929408408173  0.5021339038426743   T   T   T
  0.4190641071887936  0.5177514114375177  0.5067067233091826   T   T   T
  0.4206538938655667  0.4836118039899556  0.4893279940872065   T   T   T
  0.4553905978586132  0.4708093120768233  0.4987464063192106   T   T   T
  0.4758433156815821  0.5013977865408222  0.5010365762695752   T   T   T
  0.5770696297548374  0.4479320626012762  0.5058479033894575   T   T   T
  0.5670560634072764  0.4769949956894737  0.5374860787757465   T   T   T
  0.6076066155243023  0.5015690953685659  0.4956852008022978   T   T   T
  0.5780531222398642  0.4950692378438912  0.4635591563292319   T   T   T
  0.5713319648849181  0.5535609878240009  0.4817069189497481   T   T   T
  0.5727488848199773  0.5424730275209403  0.5237545990119258   T   T   T
  0.5133085646461278  0.5552258339088991  0.5009249582636727   T   T   T
  0.4663625415053120  0.4534042258939257  0.4806018405101625   T   T   T
  0.4553526233906063  0.4584198558416967  0.5234056494184763   T   T   T
  0.4009651617606522  0.4663959580864462  0.4974254478183992   T   T   T
  0.4187929696489712  0.4864571682278312  0.4620581697006719   T   T   T
  0.4002504446399307  0.5344794295406142  0.4959439288179966   T   T   T
  0.4134383204803810  0.5147413913373688  0.5334270897817925   T   T   T
  0.4625513747271112  0.5480768453227627  0.5224916440473022   T   T   T
  0.4570994681509197  0.5451141158662758  0.4782990980723167   T   T   T
  0.5148308813371109  0.4513518986373051  0.5192255213450436   T   T   T
  0.5247689131452803  0.4567879008648866  0.4767166384658295   T   T   T
 
  0.00000000E+00  0.00000000E+00  0.00000000E+00
  0.00000000E+00  0.00000000E+00  0.00000000E+00
  0.00000000E+00  0.00000000E+00  0.00000000E+00
  0.00000000E+00  0.00000000E+00  0.00000000E+00
  0.00000000E+00  0.00000000E+00  0.00000000E+00
  0.00000000E+00  0.00000000E+00  0.00000000E+00
  0.00000000E+00  0.00000000E+00  0.00000000E+00
  0.00000000E+00  0.00000000E+00  0.00000000E+00
  0.00000000E+00  0.00000000E+00  0.00000000E+00
  0.00000000E+00  0.00000000E+00  0.00000000E+00
  0.00000000E+00  0.00000000E+00  0.00000000E+00
  0.00000000E+00  0.00000000E+00  0.00000000E+00
  0.00000000E+00  0.00000000E+00  0.00000000E+00
  0.00000000E+00  0.00000000E+00  0.00000000E+00
  0.00000000E+00  0.00000000E+00  0.00000000E+00
  0.00000000E+00  0.00000000E+00  0.00000000E+00
  0.00000000E+00  0.00000000E+00  0.00000000E+00
  0.00000000E+00  0.00000000E+00  0.00000000E+00
  0.00000000E+00  0.00000000E+00  0.00000000E+00
  0.00000000E+00  0.00000000E+00  0.00000000E+00
  0.00000000E+00  0.00000000E+00  0.00000000E+00
  0.00000000E+00  0.00000000E+00  0.00000000E+00
  0.00000000E+00  0.00000000E+00  0.00000000E+00
  0.00000000E+00  0.00000000E+00  0.00000000E+00
  0.00000000E+00  0.00000000E+00  0.00000000E+00
  0.00000000E+00  0.00000000E+00  0.00000000E+00
  0.00000000E+00  0.00000000E+00  0.00000000E+00
  0.00000000E+00  0.00000000E+00  0.00000000E+00
