C O H                                   
   1.00000000000000     
    40.0000000000000000    0.0000000000000000    0.0000000000000000
     0.0000000000000000   40.0000000000000000    0.0000000000000000
     0.0000000000000000    0.0000000000000000   40.0000000000000000
   C    O    H 
     7     1     8
Selective dynamics
Direct
  0.4981857762614728  0.5243310408608179  0.4999990000000025   T   T   T
  0.4644798705254893  0.5300756727459088  0.4999990000000025   T   T   T
  0.4414917290720366  0.5030965164468481  0.5000000000000000   T   T   T
  0.4527600115564482  0.4697302344725253  0.5000009999999975   T   T   T
  0.4863199207067971  0.4632040602499492  0.5000009999999975   T   T   T
  0.5094312570974435  0.4905510437126551  0.5000000000000000   T   T   T
  0.5676021338095597  0.5064106987485780  0.5000000000000000   T   T   T
  0.5409197235789627  0.4816648958932364  0.5000000000000000   T   T   T
  0.5656810936112486  0.5216028271573897  0.4775173459419586   T   T   T
  0.5656800936112512  0.5216028271573897  0.5224826540580414   T   T   T
  0.5903598838023901  0.4917229828949832  0.5000009999999975   T   T   T
  0.4963289685659435  0.4380641159759671  0.5000020000000021   T   T   T
  0.4348934853770258  0.4494344843446546  0.5000020000000021   T   T   T
  0.4149402576573910  0.5083001605829728  0.5000000000000000   T   T   T
  0.4550928241205113  0.5554375457155059  0.4999979999999979   T   T   T
  0.5158329706460139  0.5447708930406256  0.4999979999999979   T   T   T
 
  0.00000000E+00  0.00000000E+00  0.00000000E+00
  0.00000000E+00  0.00000000E+00  0.00000000E+00
  0.00000000E+00  0.00000000E+00  0.00000000E+00
  0.00000000E+00  0.00000000E+00  0.00000000E+00
  0.00000000E+00  0.00000000E+00  0.00000000E+00
  0.00000000E+00  0.00000000E+00  0.00000000E+00
  0.00000000E+00  0.00000000E+00  0.00000000E+00
  0.00000000E+00  0.00000000E+00  0.00000000E+00
  0.00000000E+00  0.00000000E+00  0.00000000E+00
  0.00000000E+00  0.00000000E+00  0.00000000E+00
  0.00000000E+00  0.00000000E+00  0.00000000E+00
  0.00000000E+00  0.00000000E+00  0.00000000E+00
  0.00000000E+00  0.00000000E+00  0.00000000E+00
  0.00000000E+00  0.00000000E+00  0.00000000E+00
  0.00000000E+00  0.00000000E+00  0.00000000E+00
  0.00000000E+00  0.00000000E+00  0.00000000E+00
