C N O H                                 
   1.00000000000000     
    40.0000000000000000    0.0000000000000000    0.0000000000000000
     0.0000000000000000   40.0000000000000000    0.0000000000000000
     0.0000000000000000    0.0000000000000000   40.0000000000000000
   C    N    O    H 
     7     1     1     7
Selective dynamics
Direct
  0.5160783432033833  0.4676031476201316  0.5000000000000000   T   T   T
  0.5499735564582802  0.4740615777251007  0.5000000000000000   T   T   T
  0.5614032337227666  0.5074657291382431  0.5000000000000000   T   T   T
  0.5387228000539361  0.5345119252625139  0.5000000000000000   T   T   T
  0.5047743745412762  0.5285119083473158  0.5000000000000000   T   T   T
  0.4928175259335014  0.4947137063606791  0.5000000000000000   T   T   T
  0.4582383981330732  0.4868224227996161  0.5000000000000000   T   T   T
  0.4357878328711203  0.5113750735816438  0.5000000000000000   T   T   T
  0.4047559152740325  0.4987925268410440  0.5000009999999975   T   T   T
  0.3896105401009433  0.5182977506954933  0.5000009999999975   T   T   T
  0.4499933636223590  0.4607094525029965  0.5000000000000000   T   T   T
  0.4868832362137404  0.5490276144667817  0.5000000000000000   T   T   T
  0.5481816429706039  0.5600452747384022  0.5000000000000000   T   T   T
  0.5881992881249574  0.5124380484443757  0.4999990000000025   T   T   T
  0.5679238604760368  0.4535908464705845  0.4999990000000025   T   T   T
  0.5066570882999943  0.4420329950050639  0.5000000000000000   T   T   T
 
  0.00000000E+00  0.00000000E+00  0.00000000E+00
  0.00000000E+00  0.00000000E+00  0.00000000E+00
  0.00000000E+00  0.00000000E+00  0.00000000E+00
  0.00000000E+00  0.00000000E+00  0.00000000E+00
  0.00000000E+00  0.00000000E+00  0.00000000E+00
  0.00000000E+00  0.00000000E+00  0.00000000E+00
  0.00000000E+00  0.00000000E+00  0.00000000E+00
  0.00000000E+00  0.00000000E+00  0.00000000E+00
  0.00000000E+00  0.00000000E+00  0.00000000E+00
  0.00000000E+00  0.00000000E+00  0.00000000E+00
  0.00000000E+00  0.00000000E+00  0.00000000E+00
  0.00000000E+00  0.00000000E+00  0.00000000E+00
  0.00000000E+00  0.00000000E+00  0.00000000E+00
  0.00000000E+00  0.00000000E+00  0.00000000E+00
  0.00000000E+00  0.00000000E+00  0.00000000E+00
  0.00000000E+00  0.00000000E+00  0.00000000E+00
