C H                                     
   1.00000000000000     
    40.0000000000000000    0.0000000000000000    0.0000000000000000
     0.0000000000000000   40.0000000000000000    0.0000000000000000
     0.0000000000000000    0.0000000000000000   40.0000000000000000
   C    H 
     6     6
Selective dynamics
Direct
  0.4684973138829739  0.5162513464268906  0.5000000000000000   T   T   T
  0.4991482525022973  0.5344541124250817  0.5000000000000000   T   T   T
  0.5306522915045936  0.5178537181300019  0.5000000000000000   T   T   T
  0.5315026861170260  0.4837486535731094  0.5000000000000000   T   T   T
  0.5008517474977024  0.4655458875749183  0.5000000000000000   T   T   T
  0.4693477084954066  0.4821462818699979  0.5000000000000000   T   T   T
  0.4466263644596716  0.4674981484519295  0.5000000000000000   T   T   T
  0.5015482756948502  0.4384655028936385  0.5000000000000000   T   T   T
  0.5549205240319951  0.4702377229740330  0.4999990000000025   T   T   T
  0.5533736355403355  0.5325018515480706  0.5000000000000000   T   T   T
  0.4984517243051569  0.5615344971063616  0.5000000000000000   T   T   T
  0.4450794759680050  0.5297622770259740  0.5000000000000000   T   T   T
 
  0.00000000E+00  0.00000000E+00  0.00000000E+00
  0.00000000E+00  0.00000000E+00  0.00000000E+00
  0.00000000E+00  0.00000000E+00  0.00000000E+00
  0.00000000E+00  0.00000000E+00  0.00000000E+00
  0.00000000E+00  0.00000000E+00  0.00000000E+00
  0.00000000E+00  0.00000000E+00  0.00000000E+00
  0.00000000E+00  0.00000000E+00  0.00000000E+00
  0.00000000E+00  0.00000000E+00  0.00000000E+00
  0.00000000E+00  0.00000000E+00  0.00000000E+00
  0.00000000E+00  0.00000000E+00  0.00000000E+00
  0.00000000E+00  0.00000000E+00  0.00000000E+00
  0.00000000E+00  0.00000000E+00  0.00000000E+00
