C Cl O H                                
   1.00000000000000     
    40.0000000000000000    0.0000000000000000    0.0000000000000000
     0.0000000000000000   40.0000000000000000    0.0000000000000000
     0.0000000000000000    0.0000000000000000   40.0000000000000000
   C    Cl   O    H 
     8     1     1     7
Selective dynamics
Direct
  0.5096554823844657  0.5231922269479289  0.5000152076789798   T   T   T
  0.5444996099171822  0.5237742089534908  0.5000100118716271   T   T   T
  0.5619772195701637  0.4935330177745791  0.4999970308062255   T   T   T
  0.5450809407106062  0.4628715516677170  0.4999969970710528   T   T   T
  0.5103331123806337  0.4627335221510674  0.5000011787673383   T   T   T
  0.4920802047216668  0.4927772887009746  0.5000066029843785   T   T   T
  0.4546959507811574  0.4911881388027950  0.5000035522336080   T   T   T
  0.4351541511419433  0.5235689296691668  0.4999843812832915   T   T   T
  0.6052832541117767  0.4939415174166296  0.4999782847913238   T   T   T
  0.4401570391798906  0.4639656159760134  0.5000182734675549   T   T   T
  0.4412567876229925  0.5387523443006413  0.5220948259014121   T   T   T
  0.4412840550111465  0.5387489852070829  0.4778808353212805   T   T   T
  0.4083890298958963  0.5179190303119149  0.4999713223523523   T   T   T
  0.4966280697055904  0.4391727638992718  0.5000035725283345   T   T   T
  0.5591649678695546  0.4395653624829389  0.4999913885916833   T   T   T
  0.5580774994194012  0.5473711605927920  0.5000197685103461   T   T   T
  0.4962816255759422  0.5469263351450192  0.5000277658392012   T   T   T
 
  0.00000000E+00  0.00000000E+00  0.00000000E+00
  0.00000000E+00  0.00000000E+00  0.00000000E+00
  0.00000000E+00  0.00000000E+00  0.00000000E+00
  0.00000000E+00  0.00000000E+00  0.00000000E+00
  0.00000000E+00  0.00000000E+00  0.00000000E+00
  0.00000000E+00  0.00000000E+00  0.00000000E+00
  0.00000000E+00  0.00000000E+00  0.00000000E+00
  0.00000000E+00  0.00000000E+00  0.00000000E+00
  0.00000000E+00  0.00000000E+00  0.00000000E+00
  0.00000000E+00  0.00000000E+00  0.00000000E+00
  0.00000000E+00  0.00000000E+00  0.00000000E+00
  0.00000000E+00  0.00000000E+00  0.00000000E+00
  0.00000000E+00  0.00000000E+00  0.00000000E+00
  0.00000000E+00  0.00000000E+00  0.00000000E+00
  0.00000000E+00  0.00000000E+00  0.00000000E+00
  0.00000000E+00  0.00000000E+00  0.00000000E+00
  0.00000000E+00  0.00000000E+00  0.00000000E+00
