C F O H                                 
   1.00000000000000     
    40.0000000000000000    0.0000000000000000    0.0000000000000000
     0.0000000000000000   40.0000000000000000    0.0000000000000000
     0.0000000000000000    0.0000000000000000   40.0000000000000000
   C    F    O    H 
     9     3     1     7
Selective dynamics
Direct
  0.5065351359539089  0.5368120924847155  0.5001203722523827   T   T   T
  0.4720454196865829  0.5368461251146737  0.5004305407402393   T   T   T
  0.4538904905237645  0.5063139398248493  0.5009037935919134   T   T   T
  0.4721786864135040  0.4757697692346403  0.5006862061324189   T   T   T
  0.5067208665109255  0.4758193688650487  0.5003491215488588   T   T   T
  0.5255892170430582  0.5063710221398596  0.5000891440703903   T   T   T
  0.5615869186341950  0.5075246816965002  0.4997643678576650   T   T   T
  0.5811244140340317  0.4748462523459539  0.4996112471515810   T   T   T
  0.4173007053201641  0.5056874184807053  0.5001140211288860   T   T   T
  0.4035023989412545  0.4952729431661280  0.4692560950136626   T   T   T
  0.4030089697386193  0.4833446942684041  0.5227487743591126   T   T   T
  0.4026405510029947  0.5361729286650361  0.5062493083633227   T   T   T
  0.5778297384954488  0.5351297657376287  0.4995890562335641   T   T   T
  0.5756672690662831  0.4594217412998019  0.5217955944955196   T   T   T
  0.5752026309988227  0.4593568908929471  0.4775894597612829   T   T   T
  0.6079478828753633  0.4805226691678028  0.4993182914031577   T   T   T
  0.5197046184068804  0.4518223990571153  0.5002673256624980   T   T   T
  0.4587231593693080  0.4520117625100755  0.5008323434120102   T   T   T
  0.4585709024282651  0.5605630574583597  0.5003870993589993   T   T   T
  0.5202300245566468  0.5603904775898041  0.4998978374625275   T   T   T
 
  0.00000000E+00  0.00000000E+00  0.00000000E+00
  0.00000000E+00  0.00000000E+00  0.00000000E+00
  0.00000000E+00  0.00000000E+00  0.00000000E+00
  0.00000000E+00  0.00000000E+00  0.00000000E+00
  0.00000000E+00  0.00000000E+00  0.00000000E+00
  0.00000000E+00  0.00000000E+00  0.00000000E+00
  0.00000000E+00  0.00000000E+00  0.00000000E+00
  0.00000000E+00  0.00000000E+00  0.00000000E+00
  0.00000000E+00  0.00000000E+00  0.00000000E+00
  0.00000000E+00  0.00000000E+00  0.00000000E+00
  0.00000000E+00  0.00000000E+00  0.00000000E+00
  0.00000000E+00  0.00000000E+00  0.00000000E+00
  0.00000000E+00  0.00000000E+00  0.00000000E+00
  0.00000000E+00  0.00000000E+00  0.00000000E+00
  0.00000000E+00  0.00000000E+00  0.00000000E+00
  0.00000000E+00  0.00000000E+00  0.00000000E+00
  0.00000000E+00  0.00000000E+00  0.00000000E+00
  0.00000000E+00  0.00000000E+00  0.00000000E+00
  0.00000000E+00  0.00000000E+00  0.00000000E+00
  0.00000000E+00  0.00000000E+00  0.00000000E+00
