C H                                     
   1.00000000000000     
    40.0000000000000000    0.0000000000000000    0.0000000000000000
     0.0000000000000000   40.0000000000000000    0.0000000000000000
     0.0000000000000000    0.0000000000000000   40.0000000000000000
   C    H 
    10     8
Selective dynamics
Direct
  0.5608478516569508  0.4822800141942365  0.5000000000000000   T   T   T
  0.5608478516569508  0.5177189858057591  0.5000000000000000   T   T   T
  0.5311166739777514  0.5353085843954103  0.5000000000000000   T   T   T
  0.5000000000000000  0.5183081318048758  0.5000000000000000   T   T   T
  0.4688833260222487  0.5353085843954103  0.5000000000000000   T   T   T
  0.4391521483430493  0.5177199858057637  0.5000000000000000   T   T   T
  0.4391521483430493  0.4822810141942411  0.5000000000000000   T   T   T
  0.4688833260222487  0.4646914156045901  0.5000000000000000   T   T   T
  0.5000000000000000  0.4816918681951245  0.5000000000000000   T   T   T
  0.5311166739777514  0.4646914156045901  0.5000000000000000   T   T   T
  0.5311655809625656  0.4373974473062899  0.5000000000000000   T   T   T
  0.4688334190374370  0.4373984473062874  0.5000000000000000   T   T   T
  0.4154198902336558  0.4688526591477091  0.5000000000000000   T   T   T
  0.4154208902336604  0.5311483408522953  0.5000000000000000   T   T   T
  0.4688344190374344  0.5626025526937104  0.5000000000000000   T   T   T
  0.5311665809625631  0.5626015526937129  0.5000000000000000   T   T   T
  0.5845801097663441  0.5311473408522908  0.5000000000000000   T   T   T
  0.5845791097663395  0.4688516591477045  0.5000000000000000   T   T   T
 
  0.00000000E+00  0.00000000E+00  0.00000000E+00
  0.00000000E+00  0.00000000E+00  0.00000000E+00
  0.00000000E+00  0.00000000E+00  0.00000000E+00
  0.00000000E+00  0.00000000E+00  0.00000000E+00
  0.00000000E+00  0.00000000E+00  0.00000000E+00
  0.00000000E+00  0.00000000E+00  0.00000000E+00
  0.00000000E+00  0.00000000E+00  0.00000000E+00
  0.00000000E+00  0.00000000E+00  0.00000000E+00
  0.00000000E+00  0.00000000E+00  0.00000000E+00
  0.00000000E+00  0.00000000E+00  0.00000000E+00
  0.00000000E+00  0.00000000E+00  0.00000000E+00
  0.00000000E+00  0.00000000E+00  0.00000000E+00
  0.00000000E+00  0.00000000E+00  0.00000000E+00
  0.00000000E+00  0.00000000E+00  0.00000000E+00
  0.00000000E+00  0.00000000E+00  0.00000000E+00
  0.00000000E+00  0.00000000E+00  0.00000000E+00
  0.00000000E+00  0.00000000E+00  0.00000000E+00
  0.00000000E+00  0.00000000E+00  0.00000000E+00
