C H                                     
   1.00000000000000     
    40.0000000000000000    0.0000000000000000    0.0000000000000000
     0.0000000000000000   40.0000000000000000    0.0000000000000000
     0.0000000000000000    0.0000000000000000   40.0000000000000000
   C    H 
    12    14
Selective dynamics
Direct
  0.5199271554590195  0.4860829008219709  0.4984078607789098   T   T   T
  0.5468245763711818  0.4641572800020848  0.5056215267008038   T   T   T
  0.5793749579427372  0.4756980163144473  0.5063545184756618   T   T   T
  0.5865243216214964  0.5098196456124139  0.4999332132836737   T   T   T
  0.5608634916240870  0.5320909915580009  0.4936543487497677   T   T   T
  0.5270783128884509  0.5215140872973806  0.4945669934978710   T   T   T
  0.5016168667001764  0.5467854862490300  0.4933013173143146   T   T   T
  0.4702419444511928  0.5449337301360129  0.5069522952316805   T   T   T
  0.4447830506773102  0.5715901914559648  0.5042019813811306   T   T   T
  0.4869590540008064  0.4733925379929952  0.4917813051644542   T   T   T
  0.4745413497662624  0.4435366159028159  0.5033743787680557   T   T   T
  0.4404664881479424  0.4312538819908099  0.4963593311504057   T   T   T
  0.4222655955298417  0.5615750452731141  0.4917746523636767   T   T   T
  0.4362696792007114  0.5792961300734352  0.5292516132816464   T   T   T
  0.4536868434819977  0.5934344105553278  0.4902599608567639   T   T   T
  0.4634809698884703  0.5231130608903495  0.5219726139963767   T   T   T
  0.5092439248614828  0.5706787963333251  0.4823442125771081   T   T   T
  0.5662247171959937  0.5585046477314085  0.4895596641007282   T   T   T
  0.6123463299433128  0.5185266948776394  0.5004121335748817   T   T   T
  0.5998308009235627  0.4582614700757149  0.5108728877233607   T   T   T
  0.5420015751878031  0.4374988567723387  0.5083979525503592   T   T   T
  0.4262215660290707  0.4479526800682899  0.4799435753377423   T   T   T
  0.4418008200631883  0.4060960436986165  0.4850663008700984   T   T   T
  0.4266822932723031  0.4276122673380050  0.5199876849813392   T   T   T
  0.4900826513312591  0.4278953010104352  0.5195510286482764   T   T   T
  0.4706616634403458  0.4886982299680701  0.4760956486408963   T   T   T
 
  0.00000000E+00  0.00000000E+00  0.00000000E+00
  0.00000000E+00  0.00000000E+00  0.00000000E+00
  0.00000000E+00  0.00000000E+00  0.00000000E+00
  0.00000000E+00  0.00000000E+00  0.00000000E+00
  0.00000000E+00  0.00000000E+00  0.00000000E+00
  0.00000000E+00  0.00000000E+00  0.00000000E+00
  0.00000000E+00  0.00000000E+00  0.00000000E+00
  0.00000000E+00  0.00000000E+00  0.00000000E+00
  0.00000000E+00  0.00000000E+00  0.00000000E+00
  0.00000000E+00  0.00000000E+00  0.00000000E+00
  0.00000000E+00  0.00000000E+00  0.00000000E+00
  0.00000000E+00  0.00000000E+00  0.00000000E+00
  0.00000000E+00  0.00000000E+00  0.00000000E+00
  0.00000000E+00  0.00000000E+00  0.00000000E+00
  0.00000000E+00  0.00000000E+00  0.00000000E+00
  0.00000000E+00  0.00000000E+00  0.00000000E+00
  0.00000000E+00  0.00000000E+00  0.00000000E+00
  0.00000000E+00  0.00000000E+00  0.00000000E+00
  0.00000000E+00  0.00000000E+00  0.00000000E+00
  0.00000000E+00  0.00000000E+00  0.00000000E+00
  0.00000000E+00  0.00000000E+00  0.00000000E+00
  0.00000000E+00  0.00000000E+00  0.00000000E+00
  0.00000000E+00  0.00000000E+00  0.00000000E+00
  0.00000000E+00  0.00000000E+00  0.00000000E+00
  0.00000000E+00  0.00000000E+00  0.00000000E+00
  0.00000000E+00  0.00000000E+00  0.00000000E+00
