C O H                                   
   1.00000000000000     
    40.0000000000000000    0.0000000000000000    0.0000000000000000
     0.0000000000000000   40.0000000000000000    0.0000000000000000
     0.0000000000000000    0.0000000000000000   40.0000000000000000
   C    O    H 
     9     1    10
Selective dynamics
Direct
  0.5067856189621320  0.5240395847333311  0.4997519868169688   T   T   T
  0.4721988210491721  0.5243096053621409  0.4995361016937737   T   T   T
  0.4532803151715438  0.4946221775012261  0.4994921497242366   T   T   T
  0.4713498844411656  0.4643049514501182  0.4996924714167293   T   T   T
  0.5058010943543451  0.4634929580088090  0.4998831240419512   T   T   T
  0.5253498868205135  0.4934679109907695  0.4999596649795403   T   T   T
  0.5610330076538844  0.4918324154035275  0.5000707945129947   T   T   T
  0.5806930892718681  0.5243851897452444  0.5000892099295439   T   T   T
  0.4157940066972025  0.4950107406299148  0.5004698725190946   T   T   T
  0.5773082011583411  0.4642860514844452  0.5001387718009056   T   T   T
  0.6072684028411018  0.5183156715610934  0.5002133333372693   T   T   T
  0.5752211035829194  0.5400154260348157  0.5219896909512365   T   T   T
  0.5754128482861750  0.5399244047132749  0.4780737711312321   T   T   T
  0.5192061909091774  0.4399202927621478  0.4998268490628487   T   T   T
  0.4574546659165890  0.4408679908266361  0.4995940025448579   T   T   T
  0.4058236998923769  0.4920417468796890  0.5259332327773202   T   T   T
  0.4057721005759559  0.5185413439245631  0.4907910294826210   T   T   T
  0.4050854703066733  0.4746935837613758  0.4855653666658941   T   T   T
  0.4591353449951837  0.5481989622324029  0.4993428028039464   T   T   T
  0.5200262471136859  0.5477299919944513  0.4995877738070381   T   T   T
 
  0.00000000E+00  0.00000000E+00  0.00000000E+00
  0.00000000E+00  0.00000000E+00  0.00000000E+00
  0.00000000E+00  0.00000000E+00  0.00000000E+00
  0.00000000E+00  0.00000000E+00  0.00000000E+00
  0.00000000E+00  0.00000000E+00  0.00000000E+00
  0.00000000E+00  0.00000000E+00  0.00000000E+00
  0.00000000E+00  0.00000000E+00  0.00000000E+00
  0.00000000E+00  0.00000000E+00  0.00000000E+00
  0.00000000E+00  0.00000000E+00  0.00000000E+00
  0.00000000E+00  0.00000000E+00  0.00000000E+00
  0.00000000E+00  0.00000000E+00  0.00000000E+00
  0.00000000E+00  0.00000000E+00  0.00000000E+00
  0.00000000E+00  0.00000000E+00  0.00000000E+00
  0.00000000E+00  0.00000000E+00  0.00000000E+00
  0.00000000E+00  0.00000000E+00  0.00000000E+00
  0.00000000E+00  0.00000000E+00  0.00000000E+00
  0.00000000E+00  0.00000000E+00  0.00000000E+00
  0.00000000E+00  0.00000000E+00  0.00000000E+00
  0.00000000E+00  0.00000000E+00  0.00000000E+00
  0.00000000E+00  0.00000000E+00  0.00000000E+00
