C N H                                   
   1.00000000000000     
    40.0000000000000000    0.0000000000000000    0.0000000000000000
     0.0000000000000000   40.0000000000000000    0.0000000000000000
     0.0000000000000000    0.0000000000000000   40.0000000000000000
   C    N    H 
     7     1     9
Selective dynamics
Direct
  0.4776880230863938  0.5309663492645669  0.5000638317943711   T   T   T
  0.5119885847801697  0.5306091710124221  0.4994268492401090   T   T   T
  0.5301446538477705  0.5000212505529475  0.4994462457993265   T   T   T
  0.5673359950851307  0.5000073985349687  0.4991369257312783   T   T   T
  0.5119967665496503  0.4694192899176315  0.4994249523469065   T   T   T
  0.4776971807926600  0.4690441192634296  0.5000620777056639   T   T   T
  0.4597318714996703  0.5000031075623710  0.5007379354442207   T   T   T
  0.4263258731859167  0.4999966752883083  0.5021138030275623   T   T   T
  0.5776571588172317  0.5226394777564067  0.5106889001188009   T   T   T
  0.5764494647324270  0.4994754431008843  0.4730454850990924   T   T   T
  0.5776139543981742  0.4777884520572115  0.5115204218894149   T   T   T
  0.4130748476351656  0.4783158256050157  0.5027804514499721   T   T   T
  0.4130670637377847  0.5216726391930564  0.5027849657804992   T   T   T
  0.4638723277163379  0.4455638087754537  0.5002554544995377   T   T   T
  0.5257638390657817  0.4458972076446344  0.4991176949783238   T   T   T
  0.5257421534186761  0.5541375617988606  0.4991273543704082   T   T   T
  0.4638502416510448  0.5544422226718453  0.5002666507245053   T   T   T
 
  0.00000000E+00  0.00000000E+00  0.00000000E+00
  0.00000000E+00  0.00000000E+00  0.00000000E+00
  0.00000000E+00  0.00000000E+00  0.00000000E+00
  0.00000000E+00  0.00000000E+00  0.00000000E+00
  0.00000000E+00  0.00000000E+00  0.00000000E+00
  0.00000000E+00  0.00000000E+00  0.00000000E+00
  0.00000000E+00  0.00000000E+00  0.00000000E+00
  0.00000000E+00  0.00000000E+00  0.00000000E+00
  0.00000000E+00  0.00000000E+00  0.00000000E+00
  0.00000000E+00  0.00000000E+00  0.00000000E+00
  0.00000000E+00  0.00000000E+00  0.00000000E+00
  0.00000000E+00  0.00000000E+00  0.00000000E+00
  0.00000000E+00  0.00000000E+00  0.00000000E+00
  0.00000000E+00  0.00000000E+00  0.00000000E+00
  0.00000000E+00  0.00000000E+00  0.00000000E+00
  0.00000000E+00  0.00000000E+00  0.00000000E+00
  0.00000000E+00  0.00000000E+00  0.00000000E+00
