C O H                                   
   1.00000000000000     
    40.0000000000000000    0.0000000000000000    0.0000000000000000
     0.0000000000000000   40.0000000000000000    0.0000000000000000
     0.0000000000000000    0.0000000000000000   40.0000000000000000
   C    O    H 
     7     1     8
Selective dynamics
Direct
  0.4984911068038061  0.5230374061955811  0.4999990000000025   T   T   T
  0.4640770200268775  0.5295427084527650  0.4999990000000025   T   T   T
  0.4408110240339280  0.5035192899673619  0.5000000000000000   T   T   T
  0.4522694879533654  0.4703865844369586  0.5000009999999975   T   T   T
  0.4864051999634640  0.4634512599102047  0.5000009999999975   T   T   T
  0.5096852747346680  0.4897814565033402  0.5000000000000000   T   T   T
  0.5674568310587266  0.5063978171478417  0.5000000000000000   T   T   T
  0.5426778131002663  0.4804064582039819  0.5000000000000000   T   T   T
  0.5653724051980570  0.5221160296128966  0.4774959843784290   T   T   T
  0.5653714051980595  0.5221160296128966  0.5225040156215710   T   T   T
  0.5916437718308065  0.4935817063542497  0.5000009999999975   T   T   T
  0.4956009952117221  0.4377783671893581  0.5000020000000021   T   T   T
  0.4344549397106457  0.4497270983609222  0.5000020000000021   T   T   T
  0.4140767765221631  0.5088746312681643  0.5000000000000000   T   T   T
  0.4555297337099302  0.5554621393722663  0.4999979999999979   T   T   T
  0.5160762149435139  0.5438210174112105  0.4999979999999979   T   T   T
 
  0.00000000E+00  0.00000000E+00  0.00000000E+00
  0.00000000E+00  0.00000000E+00  0.00000000E+00
  0.00000000E+00  0.00000000E+00  0.00000000E+00
  0.00000000E+00  0.00000000E+00  0.00000000E+00
  0.00000000E+00  0.00000000E+00  0.00000000E+00
  0.00000000E+00  0.00000000E+00  0.00000000E+00
  0.00000000E+00  0.00000000E+00  0.00000000E+00
  0.00000000E+00  0.00000000E+00  0.00000000E+00
  0.00000000E+00  0.00000000E+00  0.00000000E+00
  0.00000000E+00  0.00000000E+00  0.00000000E+00
  0.00000000E+00  0.00000000E+00  0.00000000E+00
  0.00000000E+00  0.00000000E+00  0.00000000E+00
  0.00000000E+00  0.00000000E+00  0.00000000E+00
  0.00000000E+00  0.00000000E+00  0.00000000E+00
  0.00000000E+00  0.00000000E+00  0.00000000E+00
  0.00000000E+00  0.00000000E+00  0.00000000E+00
