!PBE0 def2-SV(p) Opt Freq d3 TightSCF SlowConv RIJCOSX defgrid2
 
%pal
nprocs 4
end
 
%scf
MaxIter 1500
end
 
%maxcore 3000
 

 
* xyz -1 2
C     0.2404869   -1.3278763    0.0001679 
C     1.5959524   -1.2243178    0.0002237 
C     2.2261763    0.0500330   -0.0000437 
C     1.3991995    1.2057250   -0.0004066 
C     0.0432543    1.0974376   -0.0004156 
C    -0.5951387   -0.1747765   -0.0000988 
C    -2.0069107   -0.3271269    0.0000338 
O    -2.6369949   -1.4007974    0.0001347 
O    -2.7010407    0.8788643    0.0001626 
C    -4.1094336    0.7798295    0.0004811 
H    -4.4616198    0.2448071   -0.8874501 
H    -4.4819983    1.8022151    0.0024041 
H    -4.4609707    0.2416785    0.8867681 
H    -0.5767165    1.9822023   -0.0006896 
H     1.8751865    2.1789438   -0.0006689 
C     3.6030920    0.1624892    0.0000681 
N     4.7630412    0.2584513    0.0001665 
H     2.2193931   -2.1103325    0.0004839 
H    -0.2437073   -2.2958142    0.0003781
*
