C N H                                   
   1.00000000000000     
    40.0000000000000000    0.0000000000000000    0.0000000000000000
     0.0000000000000000   40.0000000000000000    0.0000000000000000
     0.0000000000000000    0.0000000000000000   40.0000000000000000
   C    N    H 
     8     2     4
Selective dynamics
Direct
  0.4697772083829813  0.4902272847078633  0.4999996811032916   T   T   T
  0.4697678261290678  0.5254187719785690  0.5000036036834196   T   T   T
  0.5000007979036026  0.5427352117809678  0.4999999477720250   T   T   T
  0.5302329774928469  0.5254171541209206  0.4999932831013066   T   T   T
  0.5302223196746304  0.4902252143572600  0.4999913033208750   T   T   T
  0.4999991168194783  0.4724570980692648  0.4999935717053723   T   T   T
  0.5611821743182938  0.4723949634558875  0.5000029488330859   T   T   T
  0.4388162816195281  0.4723983474132231  0.4999998996195860   T   T   T
  0.5865394061772602  0.4579137563050918  0.5000227719344071   T   T   T
  0.4134590914630750  0.4579174789375225  0.4999971204572569   T   T   T
  0.4999985481734253  0.4452322796495628  0.4999926820192408   T   T   T
  0.5539160722483454  0.5388457611118809  0.4999917734954257   T   T   T
  0.5000012358799942  0.5699706895240217  0.5000031684992537   T   T   T
  0.4460849437174763  0.5388479885879521  0.5000092444554368   T   T   T
 
  0.00000000E+00  0.00000000E+00  0.00000000E+00
  0.00000000E+00  0.00000000E+00  0.00000000E+00
  0.00000000E+00  0.00000000E+00  0.00000000E+00
  0.00000000E+00  0.00000000E+00  0.00000000E+00
  0.00000000E+00  0.00000000E+00  0.00000000E+00
  0.00000000E+00  0.00000000E+00  0.00000000E+00
  0.00000000E+00  0.00000000E+00  0.00000000E+00
  0.00000000E+00  0.00000000E+00  0.00000000E+00
  0.00000000E+00  0.00000000E+00  0.00000000E+00
  0.00000000E+00  0.00000000E+00  0.00000000E+00
  0.00000000E+00  0.00000000E+00  0.00000000E+00
  0.00000000E+00  0.00000000E+00  0.00000000E+00
  0.00000000E+00  0.00000000E+00  0.00000000E+00
  0.00000000E+00  0.00000000E+00  0.00000000E+00
