C H                                     
   1.00000000000000     
    40.0000000000000000    0.0000000000000000    0.0000000000000000
     0.0000000000000000   40.0000000000000000    0.0000000000000000
     0.0000000000000000    0.0000000000000000   40.0000000000000000
   C    H 
     8    10
Selective dynamics
Direct
  0.4452785749149447  0.4820359700591173  0.5000009157873393   T   T   T
  0.4750566485445861  0.4644749347228600  0.5000005364039026   T   T   T
  0.5057192721366074  0.4815548795237773  0.4999997873856614   T   T   T
  0.5376456827288347  0.4629681224624537  0.4999981708036145   T   T   T
  0.5057193255387328  0.5184448844031454  0.5000004051416340   T   T   T
  0.5376455005528182  0.5370317664799866  0.5000001930902300   T   T   T
  0.4750568325727814  0.5355252025500886  0.5000012806698635   T   T   T
  0.4452782831306484  0.5179640213461222  0.5000013754990960   T   T   T
  0.5530394062420465  0.4697774687982317  0.5218633633791704   T   T   T
  0.5337309659216077  0.4359109965422075  0.5000003043109942   T   T   T
  0.5530357088499154  0.4697745636788085  0.4781294903324474   T   T   T
  0.5530385155218804  0.5302222609976568  0.4781346058324497   T   T   T
  0.5337309496462356  0.5640888792613243  0.4999983395436018   T   T   T
  0.5530364391285156  0.5302253543776587  0.5218683008815311   T   T   T
  0.4214867491845458  0.5312202824208079  0.5000013071251743   T   T   T
  0.4750081750200461  0.5627638289853479  0.5000012208110576   T   T   T
  0.4750082554948232  0.4372361013508324  0.5000001430382781   T   T   T
  0.4214867148704049  0.4687794820395617  0.5000012599639376   T   T   T
 
  0.00000000E+00  0.00000000E+00  0.00000000E+00
  0.00000000E+00  0.00000000E+00  0.00000000E+00
  0.00000000E+00  0.00000000E+00  0.00000000E+00
  0.00000000E+00  0.00000000E+00  0.00000000E+00
  0.00000000E+00  0.00000000E+00  0.00000000E+00
  0.00000000E+00  0.00000000E+00  0.00000000E+00
  0.00000000E+00  0.00000000E+00  0.00000000E+00
  0.00000000E+00  0.00000000E+00  0.00000000E+00
  0.00000000E+00  0.00000000E+00  0.00000000E+00
  0.00000000E+00  0.00000000E+00  0.00000000E+00
  0.00000000E+00  0.00000000E+00  0.00000000E+00
  0.00000000E+00  0.00000000E+00  0.00000000E+00
  0.00000000E+00  0.00000000E+00  0.00000000E+00
  0.00000000E+00  0.00000000E+00  0.00000000E+00
  0.00000000E+00  0.00000000E+00  0.00000000E+00
  0.00000000E+00  0.00000000E+00  0.00000000E+00
  0.00000000E+00  0.00000000E+00  0.00000000E+00
  0.00000000E+00  0.00000000E+00  0.00000000E+00
