C O H                                   
   1.00000000000000     
    40.0000000000000000    0.0000000000000000    0.0000000000000000
     0.0000000000000000   40.0000000000000000    0.0000000000000000
     0.0000000000000000    0.0000000000000000   40.0000000000000000
   C    O    H 
    10     1    12
Selective dynamics
Direct
  0.5029390255466155  0.5301146078598545  0.4999996040161198   T   T   T
  0.4688003435382272  0.5360364585620606  0.4999982168093134   T   T   T
  0.4460736383384856  0.5091769648866725  0.4999993301840038   T   T   T
  0.4583080966572057  0.4763708924952262  0.5000019800319763   T   T   T
  0.4928337223025822  0.4709256415539421  0.5000025505128158   T   T   T
  0.5160282791102391  0.4973062758727171  0.5000016215931192   T   T   T
  0.5518778437051074  0.4898007950466522  0.5000026851821282   T   T   T
  0.5774850324985914  0.5116484089091071  0.4999994503390149   T   T   T
  0.6135953006422494  0.5019960082880452  0.5000011067904372   T   T   T
  0.3889812902782096  0.4911116775194844  0.4999965018262226   T   T   T
  0.4129110217364982  0.5176988153628592  0.4999973263117860   T   T   T
  0.6266793364196356  0.5121718941735611  0.5220127354259338   T   T   T
  0.6266793170273220  0.5121640633770516  0.4779857363485955   T   T   T
  0.6168102114364170  0.4747190382596139  0.5000057148409879   T   T   T
  0.5723262795247240  0.5385296210323921  0.4999952918068935   T   T   T
  0.5580126074190406  0.4630766546658671  0.5000066783017859   T   T   T
  0.5020465243080067  0.4452105569444689  0.5000050115706290   T   T   T
  0.4414144801682728  0.4550308191642066  0.5000024240344600   T   T   T
  0.3914454286190842  0.4753806988968219  0.5224701706489123   T   T   T
  0.3914490779435112  0.4753791233992329  0.4775238441690095   T   T   T
  0.3644033577256107  0.5031498940921836  0.4999942173230478   T   T   T
  0.4590368820487482  0.5614915607106084  0.4999972449476682   T   T   T
  0.5198649030056320  0.5515095289273851  0.4999995569851279   T   T   T
 
  0.00000000E+00  0.00000000E+00  0.00000000E+00
  0.00000000E+00  0.00000000E+00  0.00000000E+00
  0.00000000E+00  0.00000000E+00  0.00000000E+00
  0.00000000E+00  0.00000000E+00  0.00000000E+00
  0.00000000E+00  0.00000000E+00  0.00000000E+00
  0.00000000E+00  0.00000000E+00  0.00000000E+00
  0.00000000E+00  0.00000000E+00  0.00000000E+00
  0.00000000E+00  0.00000000E+00  0.00000000E+00
  0.00000000E+00  0.00000000E+00  0.00000000E+00
  0.00000000E+00  0.00000000E+00  0.00000000E+00
  0.00000000E+00  0.00000000E+00  0.00000000E+00
  0.00000000E+00  0.00000000E+00  0.00000000E+00
  0.00000000E+00  0.00000000E+00  0.00000000E+00
  0.00000000E+00  0.00000000E+00  0.00000000E+00
  0.00000000E+00  0.00000000E+00  0.00000000E+00
  0.00000000E+00  0.00000000E+00  0.00000000E+00
  0.00000000E+00  0.00000000E+00  0.00000000E+00
  0.00000000E+00  0.00000000E+00  0.00000000E+00
  0.00000000E+00  0.00000000E+00  0.00000000E+00
  0.00000000E+00  0.00000000E+00  0.00000000E+00
  0.00000000E+00  0.00000000E+00  0.00000000E+00
  0.00000000E+00  0.00000000E+00  0.00000000E+00
  0.00000000E+00  0.00000000E+00  0.00000000E+00
