C O H                                   
   1.00000000000000     
    40.0000000000000000    0.0000000000000000    0.0000000000000000
     0.0000000000000000   40.0000000000000000    0.0000000000000000
     0.0000000000000000    0.0000000000000000   40.0000000000000000
   C    O    H 
     7     1     8
Selective dynamics
Direct
  0.4984746889655938  0.5230083998546249  0.4999990000000025   T   T   T
  0.4640883683871522  0.5295288243803427  0.4999990000000025   T   T   T
  0.4408585854615836  0.5035186092831978  0.5000000000000000   T   T   T
  0.4523159622566624  0.4704216332907762  0.5000009999999975   T   T   T
  0.4864144162203061  0.4634753808240362  0.5000009999999975   T   T   T
  0.5096833512366246  0.4897865499021208  0.5000000000000000   T   T   T
  0.5673301285819505  0.5063173767469848  0.5000000000000000   T   T   T
  0.5426651479146756  0.4804174158968380  0.5000000000000000   T   T   T
  0.5653551118021483  0.5221285320200195  0.4775285140447991   T   T   T
  0.5653541118021508  0.5221285320200195  0.5224714859552009   T   T   T
  0.5915509258674163  0.4935728822258483  0.5000009999999975   T   T   T
  0.4956382145497997  0.4378307238734394  0.5000020000000021   T   T   T
  0.4344945954272816  0.4497823397836314  0.5000020000000021   T   T   T
  0.4141409976272428  0.5088765868441953  0.5000000000000000   T   T   T
  0.4555655737313273  0.5554372636356675  0.4999979999999979   T   T   T
  0.5160698201680773  0.5437689494182649  0.4999979999999979   T   T   T
 
  0.00000000E+00  0.00000000E+00  0.00000000E+00
  0.00000000E+00  0.00000000E+00  0.00000000E+00
  0.00000000E+00  0.00000000E+00  0.00000000E+00
  0.00000000E+00  0.00000000E+00  0.00000000E+00
  0.00000000E+00  0.00000000E+00  0.00000000E+00
  0.00000000E+00  0.00000000E+00  0.00000000E+00
  0.00000000E+00  0.00000000E+00  0.00000000E+00
  0.00000000E+00  0.00000000E+00  0.00000000E+00
  0.00000000E+00  0.00000000E+00  0.00000000E+00
  0.00000000E+00  0.00000000E+00  0.00000000E+00
  0.00000000E+00  0.00000000E+00  0.00000000E+00
  0.00000000E+00  0.00000000E+00  0.00000000E+00
  0.00000000E+00  0.00000000E+00  0.00000000E+00
  0.00000000E+00  0.00000000E+00  0.00000000E+00
  0.00000000E+00  0.00000000E+00  0.00000000E+00
  0.00000000E+00  0.00000000E+00  0.00000000E+00
