C F O H                                 
   1.00000000000000     
    40.0000000000000000    0.0000000000000000    0.0000000000000000
     0.0000000000000000   40.0000000000000000    0.0000000000000000
     0.0000000000000000    0.0000000000000000   40.0000000000000000
   C    F    O    H 
     9     3     1     7
Selective dynamics
Direct
  0.5064643597448178  0.5368132585651717  0.5000665463003758   T   T   T
  0.4721449786084920  0.5367291293158652  0.5004525968905477   T   T   T
  0.4541617182051408  0.5062866686402393  0.5010706506856967   T   T   T
  0.4723911797297664  0.4759216673461719  0.5007632502769473   T   T   T
  0.5067369988769177  0.4760486658433619  0.5003190077585290   T   T   T
  0.5254637542607382  0.5064891632548786  0.5000379659651183   T   T   T
  0.5612584323709370  0.5076887958986643  0.4997136601713695   T   T   T
  0.5805790038691069  0.4749342496877832  0.4995977900512273   T   T   T
  0.4177702909721820  0.5054344059764789  0.5000791833187180   T   T   T
  0.4043049070178859  0.4954180721754265  0.4694371555456061   T   T   T
  0.4036453915529568  0.4830470598524593  0.5222654025026907   T   T   T
  0.4030731358428673  0.5355918887946959  0.5064786435824419   T   T   T
  0.5775086584967305  0.5348988482196748  0.4995415391308759   T   T   T
  0.5751070493305231  0.4596053982292031  0.5216444348884893   T   T   T
  0.5746791349377165  0.4595113632841082  0.4777230955352881   T   T   T
  0.6072083106061186  0.4806171092924961  0.4993209840860533   T   T   T
  0.5198055977934107  0.4522881034237371  0.5002661109303768   T   T   T
  0.4589295764292093  0.4523519420787936  0.5009670649339976   T   T   T
  0.4585422182867825  0.5601795918886677  0.5004300696561897   T   T   T
  0.5202253030677361  0.5601446182321795  0.4998248477894605   T   T   T
 
  0.00000000E+00  0.00000000E+00  0.00000000E+00
  0.00000000E+00  0.00000000E+00  0.00000000E+00
  0.00000000E+00  0.00000000E+00  0.00000000E+00
  0.00000000E+00  0.00000000E+00  0.00000000E+00
  0.00000000E+00  0.00000000E+00  0.00000000E+00
  0.00000000E+00  0.00000000E+00  0.00000000E+00
  0.00000000E+00  0.00000000E+00  0.00000000E+00
  0.00000000E+00  0.00000000E+00  0.00000000E+00
  0.00000000E+00  0.00000000E+00  0.00000000E+00
  0.00000000E+00  0.00000000E+00  0.00000000E+00
  0.00000000E+00  0.00000000E+00  0.00000000E+00
  0.00000000E+00  0.00000000E+00  0.00000000E+00
  0.00000000E+00  0.00000000E+00  0.00000000E+00
  0.00000000E+00  0.00000000E+00  0.00000000E+00
  0.00000000E+00  0.00000000E+00  0.00000000E+00
  0.00000000E+00  0.00000000E+00  0.00000000E+00
  0.00000000E+00  0.00000000E+00  0.00000000E+00
  0.00000000E+00  0.00000000E+00  0.00000000E+00
  0.00000000E+00  0.00000000E+00  0.00000000E+00
  0.00000000E+00  0.00000000E+00  0.00000000E+00
