C O S H                                 
   1.00000000000000     
    40.0000000000000000    0.0000000000000000    0.0000000000000000
     0.0000000000000000   40.0000000000000000    0.0000000000000000
     0.0000000000000000    0.0000000000000000   40.0000000000000000
   C    O    S    H 
     7     1     1     8
Selective dynamics
Direct
  0.5513405063075368  0.5014225702130840  0.4979261389781063   T   T   T
  0.5363959982877258  0.5330304253639453  0.4991319107782924   T   T   T
  0.5019805770702793  0.5360846040925775  0.5008744630402374   T   T   T
  0.4817230692757119  0.5076217210592783  0.5017670227766677   T   T   T
  0.4963976349958031  0.4760148431370783  0.5008276769764742   T   T   T
  0.5310476384895937  0.4731398158091745  0.4987543765488731   T   T   T
  0.4267014205914753  0.4848512379503943  0.5034782891437819   T   T   T
  0.4481279495137553  0.5133215259273269  0.5034994092425576   T   T   T
  0.5950795573488097  0.4957550940471079  0.4963195393692832   T   T   T
  0.5421950883569421  0.4484431561553027  0.4976594964064190   T   T   T
  0.4813771961070811  0.4535353194987340  0.5014450631753796   T   T   T
  0.4013769214912733  0.4946631275505478  0.5043542493106637   T   T   T
  0.4300860075215207  0.4700716394286321  0.4807023401906121   T   T   T
  0.4312353112376615  0.4690715602900687  0.5253672019616059   T   T   T
  0.4902749506736753  0.5605056923810002  0.5017174220142806   T   T   T
  0.5517194526826489  0.5553838906289557  0.4986638950176832   T   T   T
  0.6029387200484821  0.5270847764668322  0.4875095050690801   T   T   T
 
  0.00000000E+00  0.00000000E+00  0.00000000E+00
  0.00000000E+00  0.00000000E+00  0.00000000E+00
  0.00000000E+00  0.00000000E+00  0.00000000E+00
  0.00000000E+00  0.00000000E+00  0.00000000E+00
  0.00000000E+00  0.00000000E+00  0.00000000E+00
  0.00000000E+00  0.00000000E+00  0.00000000E+00
  0.00000000E+00  0.00000000E+00  0.00000000E+00
  0.00000000E+00  0.00000000E+00  0.00000000E+00
  0.00000000E+00  0.00000000E+00  0.00000000E+00
  0.00000000E+00  0.00000000E+00  0.00000000E+00
  0.00000000E+00  0.00000000E+00  0.00000000E+00
  0.00000000E+00  0.00000000E+00  0.00000000E+00
  0.00000000E+00  0.00000000E+00  0.00000000E+00
  0.00000000E+00  0.00000000E+00  0.00000000E+00
  0.00000000E+00  0.00000000E+00  0.00000000E+00
  0.00000000E+00  0.00000000E+00  0.00000000E+00
  0.00000000E+00  0.00000000E+00  0.00000000E+00
