C N H                                   
   1.00000000000000     
    40.0000000000000000    0.0000000000000000    0.0000000000000000
     0.0000000000000000   40.0000000000000000    0.0000000000000000
     0.0000000000000000    0.0000000000000000   40.0000000000000000
   C    N    H 
     5     1    11
Selective dynamics
Direct
  0.4660182709018414  0.4999854884304398  0.5032223015356010   T   T   T
  0.4847145422098862  0.4684332754473814  0.4927971936011488   T   T   T
  0.5213864343953389  0.4692734735289719  0.5071406691390123   T   T   T
  0.5213488658863881  0.5307528809101143  0.5071259419350440   T   T   T
  0.4846880979963757  0.5315503460708086  0.4927857797965416   T   T   T
  0.5362990287005758  0.5000107829361369  0.4970049699998427   T   T   T
  0.5526108941672234  0.5000178898114882  0.4773040854035386   T   T   T
  0.4730358604188680  0.5544297516217398  0.5025149174214505   T   T   T
  0.4861936308902699  0.5335718274724073  0.4654215033025082   T   T   T
  0.5360910937171752  0.5518583455447867  0.4978939714345287   T   T   T
  0.5195528086049634  0.5313366270178363  0.5345885756643582   T   T   T
  0.5361301153551850  0.4481816337488311  0.4979111069765949   T   T   T
  0.5195805053494524  0.4686884438873591  0.5345966327351945   T   T   T
  0.4730814329892183  0.4455426237278957  0.5025278137961493   T   T   T
  0.4862255363443708  0.4664095719037249  0.4654319285382087   T   T   T
  0.4411596829205848  0.4999718244094922  0.4912809871908834   T   T   T
  0.4618841991522658  0.4999862135305975  0.5304516215293802   T   T   T
 
  0.00000000E+00  0.00000000E+00  0.00000000E+00
  0.00000000E+00  0.00000000E+00  0.00000000E+00
  0.00000000E+00  0.00000000E+00  0.00000000E+00
  0.00000000E+00  0.00000000E+00  0.00000000E+00
  0.00000000E+00  0.00000000E+00  0.00000000E+00
  0.00000000E+00  0.00000000E+00  0.00000000E+00
  0.00000000E+00  0.00000000E+00  0.00000000E+00
  0.00000000E+00  0.00000000E+00  0.00000000E+00
  0.00000000E+00  0.00000000E+00  0.00000000E+00
  0.00000000E+00  0.00000000E+00  0.00000000E+00
  0.00000000E+00  0.00000000E+00  0.00000000E+00
  0.00000000E+00  0.00000000E+00  0.00000000E+00
  0.00000000E+00  0.00000000E+00  0.00000000E+00
  0.00000000E+00  0.00000000E+00  0.00000000E+00
  0.00000000E+00  0.00000000E+00  0.00000000E+00
  0.00000000E+00  0.00000000E+00  0.00000000E+00
  0.00000000E+00  0.00000000E+00  0.00000000E+00
