C N O H                                 
   1.00000000000000     
    40.0000000000000000    0.0000000000000000    0.0000000000000000
     0.0000000000000000   40.0000000000000000    0.0000000000000000
     0.0000000000000000    0.0000000000000000   40.0000000000000000
   C    N    O    H 
     7     1     1     7
Selective dynamics
Direct
  0.5160782306923299  0.4676036873623697  0.5000000000000000   T   T   T
  0.5499732553459278  0.4740620899952523  0.5000000000000000   T   T   T
  0.5614028441338919  0.5074656674981739  0.5000000000000000   T   T   T
  0.5387226042125668  0.5345113416239616  0.5000000000000000   T   T   T
  0.5047742889502821  0.5285115187365766  0.5000000000000000   T   T   T
  0.4928174516931050  0.4947137025378213  0.5000000000000000   T   T   T
  0.4582387201066735  0.4868220547555827  0.5000000000000000   T   T   T
  0.4357883915294224  0.5113747832718986  0.5000000000000000   T   T   T
  0.4047566952381989  0.4987929440328524  0.5000009999999975   T   T   T
  0.3896109783982489  0.5182977363600428  0.5000009999999975   T   T   T
  0.4499936533727324  0.4607096097696222  0.5000000000000000   T   T   T
  0.4868835356867927  0.5490272739791148  0.5000000000000000   T   T   T
  0.5481812210852409  0.5600446396772064  0.5000000000000000   T   T   T
  0.5881986218365373  0.5124379509174639  0.4999990000000025   T   T   T
  0.5679232385334719  0.4535913588775288  0.4999990000000025   T   T   T
  0.5066572691845823  0.4420336406045179  0.5000000000000000   T   T   T
 
  0.00000000E+00  0.00000000E+00  0.00000000E+00
  0.00000000E+00  0.00000000E+00  0.00000000E+00
  0.00000000E+00  0.00000000E+00  0.00000000E+00
  0.00000000E+00  0.00000000E+00  0.00000000E+00
  0.00000000E+00  0.00000000E+00  0.00000000E+00
  0.00000000E+00  0.00000000E+00  0.00000000E+00
  0.00000000E+00  0.00000000E+00  0.00000000E+00
  0.00000000E+00  0.00000000E+00  0.00000000E+00
  0.00000000E+00  0.00000000E+00  0.00000000E+00
  0.00000000E+00  0.00000000E+00  0.00000000E+00
  0.00000000E+00  0.00000000E+00  0.00000000E+00
  0.00000000E+00  0.00000000E+00  0.00000000E+00
  0.00000000E+00  0.00000000E+00  0.00000000E+00
  0.00000000E+00  0.00000000E+00  0.00000000E+00
  0.00000000E+00  0.00000000E+00  0.00000000E+00
  0.00000000E+00  0.00000000E+00  0.00000000E+00
