C Cl O H                                
   1.00000000000000     
    40.0000000000000000    0.0000000000000000    0.0000000000000000
     0.0000000000000000   40.0000000000000000    0.0000000000000000
     0.0000000000000000    0.0000000000000000   40.0000000000000000
   C    Cl   O    H 
     7     1     1     5
Selective dynamics
Direct
  0.4966937777815232  0.4686483246486333  0.4999814873558464   T   T   T
  0.4628897786149651  0.4763172379946141  0.4999825907911699   T   T   T
  0.4516712628123827  0.5097533553098188  0.4999950215903510   T   T   T
  0.4757988412787100  0.5355183403427972  0.5000154416879283   T   T   T
  0.5097671850443888  0.5285068333599767  0.5000185357505771   T   T   T
  0.5216931305786261  0.4946680369424854  0.5000015229750616   T   T   T
  0.5556681575106595  0.4845456191975686  0.5000049919801555   T   T   T
  0.5870402514914943  0.5210542592943455  0.5000140789450356   T   T   T
  0.5686500460666082  0.4563280477015539  0.4999965715200645   T   T   T
  0.5277839674333222  0.5489431909308777  0.5000314155032655   T   T   T
  0.4676890342835165  0.5616204730269558  0.5000256866021218   T   T   T
  0.4250325581486152  0.5155542075899433  0.4999927566569013   T   T   T
  0.4447174352478100  0.4559041692699850  0.4999674943317842   T   T   T
  0.5049035737073737  0.4426389043904422  0.4999724043097302   T   T   T
 
  0.00000000E+00  0.00000000E+00  0.00000000E+00
  0.00000000E+00  0.00000000E+00  0.00000000E+00
  0.00000000E+00  0.00000000E+00  0.00000000E+00
  0.00000000E+00  0.00000000E+00  0.00000000E+00
  0.00000000E+00  0.00000000E+00  0.00000000E+00
  0.00000000E+00  0.00000000E+00  0.00000000E+00
  0.00000000E+00  0.00000000E+00  0.00000000E+00
  0.00000000E+00  0.00000000E+00  0.00000000E+00
  0.00000000E+00  0.00000000E+00  0.00000000E+00
  0.00000000E+00  0.00000000E+00  0.00000000E+00
  0.00000000E+00  0.00000000E+00  0.00000000E+00
  0.00000000E+00  0.00000000E+00  0.00000000E+00
  0.00000000E+00  0.00000000E+00  0.00000000E+00
  0.00000000E+00  0.00000000E+00  0.00000000E+00
