C N O H                                 
   1.00000000000000     
    40.0000000000000000    0.0000000000000000    0.0000000000000000
     0.0000000000000000   40.0000000000000000    0.0000000000000000
     0.0000000000000000    0.0000000000000000   40.0000000000000000
   C    N    O    H 
    10     1     1    13
Selective dynamics
Direct
  0.4677364983934575  0.5294955126828923  0.5017128349024161   T   T   T
  0.4342531263153990  0.5328844946843539  0.4928880965600550   T   T   T
  0.4134493316057857  0.5051668274928848  0.4900649275475893   T   T   T
  0.4269701046596190  0.4736409680087580  0.4963439955933068   T   T   T
  0.4602371154696804  0.4698515107639208  0.5053444462365225   T   T   T
  0.4815503354897485  0.4978110975872376  0.5084953571939634   T   T   T
  0.5342379785893338  0.4651798544938551  0.5084111073032991   T   T   T
  0.5551527771709703  0.4748318504920057  0.4780777343730280   T   T   T
  0.5565421013464104  0.5311805624345172  0.4950905891756510   T   T   T
  0.5357816806879228  0.5225468186582459  0.5257598600961266   T   T   T
  0.5142795942854462  0.4937150209217234  0.5196685058034316   T   T   T
  0.5762280367062137  0.5028971265351554  0.4851991243026116   T   T   T
  0.5507610166774464  0.4575124845253446  0.5288542104955035   T   T   T
  0.5182905923632350  0.4441004576834975  0.5020612263481651   T   T   T
  0.5385983618505876  0.4810727378933637  0.4570070403342135   T   T   T
  0.5717067019289713  0.4544121005342943  0.4707684348203715   T   T   T
  0.5741209295792141  0.5513503874762972  0.5004507379865928   T   T   T
  0.5402920449747609  0.5386285219216305  0.4742102411810244   T   T   T
  0.5210797627050485  0.5438955561788023  0.5340869108593380   T   T   T
  0.5528340086224359  0.5158206685107068  0.5461236932315906   T   T   T
  0.4695202139289248  0.4450252988203414  0.5108793469807849   T   T   T
  0.4113248891336949  0.4515425555112582  0.4945733923518718   T   T   T
  0.3873977805827420  0.5079726741578277  0.4831880580367967   T   T   T
  0.4245663195387378  0.5577254756018093  0.4878541844778864   T   T   T
  0.4830856973941924  0.5517404364292603  0.5028869438078645   T   T   T
 
  0.00000000E+00  0.00000000E+00  0.00000000E+00
  0.00000000E+00  0.00000000E+00  0.00000000E+00
  0.00000000E+00  0.00000000E+00  0.00000000E+00
  0.00000000E+00  0.00000000E+00  0.00000000E+00
  0.00000000E+00  0.00000000E+00  0.00000000E+00
  0.00000000E+00  0.00000000E+00  0.00000000E+00
  0.00000000E+00  0.00000000E+00  0.00000000E+00
  0.00000000E+00  0.00000000E+00  0.00000000E+00
  0.00000000E+00  0.00000000E+00  0.00000000E+00
  0.00000000E+00  0.00000000E+00  0.00000000E+00
  0.00000000E+00  0.00000000E+00  0.00000000E+00
  0.00000000E+00  0.00000000E+00  0.00000000E+00
  0.00000000E+00  0.00000000E+00  0.00000000E+00
  0.00000000E+00  0.00000000E+00  0.00000000E+00
  0.00000000E+00  0.00000000E+00  0.00000000E+00
  0.00000000E+00  0.00000000E+00  0.00000000E+00
  0.00000000E+00  0.00000000E+00  0.00000000E+00
  0.00000000E+00  0.00000000E+00  0.00000000E+00
  0.00000000E+00  0.00000000E+00  0.00000000E+00
  0.00000000E+00  0.00000000E+00  0.00000000E+00
  0.00000000E+00  0.00000000E+00  0.00000000E+00
  0.00000000E+00  0.00000000E+00  0.00000000E+00
  0.00000000E+00  0.00000000E+00  0.00000000E+00
  0.00000000E+00  0.00000000E+00  0.00000000E+00
  0.00000000E+00  0.00000000E+00  0.00000000E+00
