C O H                                   
   1.00000000000000     
    40.0000000000000000    0.0000000000000000    0.0000000000000000
     0.0000000000000000   40.0000000000000000    0.0000000000000000
     0.0000000000000000    0.0000000000000000   40.0000000000000000
   C    O    H 
     8     1     8
Selective dynamics
Direct
  0.5103302700235731  0.4766822103585150  0.4999948652292071   T   T   T
  0.5448804152996385  0.4759949749636740  0.4999993521569133   T   T   T
  0.5637321946142140  0.5056783638605777  0.5000046262895111   T   T   T
  0.5463331479471201  0.5362790774969817  0.5000009919911356   T   T   T
  0.5118736766295887  0.5373472668264863  0.4999935354264041   T   T   T
  0.4921189963306752  0.5074774260347295  0.4999935447542134   T   T   T
  0.4564357358282733  0.5094106318810684  0.4999960993392086   T   T   T
  0.4364318362452899  0.4770498552335389  0.5000044547273658   T   T   T
  0.4404452202354941  0.5370997453542133  0.4999956865737566   T   T   T
  0.4099217371623119  0.4833812315299444  0.5000054970446474   T   T   T
  0.4416397978593945  0.4614238505748721  0.5219623597923573   T   T   T
  0.4416350273548540  0.4614143853627635  0.4780521344276495   T   T   T
  0.4985956829677978  0.5609810110737157  0.4999923979923426   T   T   T
  0.5603513478602007  0.5595882402665199  0.5000045789614421   T   T   T
  0.5908296586639118  0.5050175508266256  0.5000111268141434   T   T   T
  0.5576693448603172  0.4520043209966885  0.4999985208563492   T   T   T
  0.4967769101173778  0.4531698573591282  0.4999892276233630   T   T   T
 
  0.00000000E+00  0.00000000E+00  0.00000000E+00
  0.00000000E+00  0.00000000E+00  0.00000000E+00
  0.00000000E+00  0.00000000E+00  0.00000000E+00
  0.00000000E+00  0.00000000E+00  0.00000000E+00
  0.00000000E+00  0.00000000E+00  0.00000000E+00
  0.00000000E+00  0.00000000E+00  0.00000000E+00
  0.00000000E+00  0.00000000E+00  0.00000000E+00
  0.00000000E+00  0.00000000E+00  0.00000000E+00
  0.00000000E+00  0.00000000E+00  0.00000000E+00
  0.00000000E+00  0.00000000E+00  0.00000000E+00
  0.00000000E+00  0.00000000E+00  0.00000000E+00
  0.00000000E+00  0.00000000E+00  0.00000000E+00
  0.00000000E+00  0.00000000E+00  0.00000000E+00
  0.00000000E+00  0.00000000E+00  0.00000000E+00
  0.00000000E+00  0.00000000E+00  0.00000000E+00
  0.00000000E+00  0.00000000E+00  0.00000000E+00
  0.00000000E+00  0.00000000E+00  0.00000000E+00
