!TPSSh freq aug-cc-pVTZ d3 TightSCF SlowConv RIJCOSX defgrid2

%pal
nprocs 12
end

%scf
MaxIter 1500
end

%maxcore 5000

!CPCM
%cpcm smd true
SMDsolvent "MeCN"
surfacetype gepol_ses
rsolv 2.19
end 

* xyz 0 1
  C           0.69371420956988     -1.22348097045318      0.02810793354768
  C          -0.68924854216548     -1.21938082127577      0.06873493187393
  C          -1.34555744356325      0.00457423627743      0.00232979461865
  C          -0.66974061922913      1.21231811738225     -0.10088986148882
  C           0.71657944381852      1.18964773982197     -0.13840996588007
  C           1.40702120909690     -0.02435210826926     -0.07513538140868
  C           2.90492429041837     -0.08058480307764     -0.11466484949802
  O           3.47506675992870     -1.16120861987924     -0.06533526883860
  C           3.66880569379215      1.20981602043062     -0.21334876634279
  H           3.43413711337725      1.85700345218117      0.63577424229013
  H           4.73607740804726      0.99975798726855     -0.22817493764709
  H           3.38944352639982      1.75091222484972     -1.12111891498433
  H           1.25265247904241      2.12500223389734     -0.21815257058832
  H          -1.21703891281158      2.14189179452777     -0.14922766150305
  N          -2.81400208480937      0.02001214885610      0.04305389527914
  O          -3.38191127211458      1.10657287449556     -0.03304611408901
  O          -3.39836515710126     -1.05513001940106      0.15058960177462
  H          -1.25332538122658     -2.13673152938636      0.14953225706346
  H           1.23783207952997     -2.15686735824598      0.07636823582120

*
