C N O H                                 
   1.00000000000000     
    40.0000000000000000    0.0000000000000000    0.0000000000000000
     0.0000000000000000   40.0000000000000000    0.0000000000000000
     0.0000000000000000    0.0000000000000000   40.0000000000000000
   C    N    O    H 
    10     1     1    17
Selective dynamics
Direct
  0.4702446999858125  0.4681825283256700  0.5041421134200306   T   T   T
  0.4915007693715481  0.4992356255850652  0.5089668634629234   T   T   T
  0.4784675231451487  0.5301125360331085  0.5038445771836919   T   T   T
  0.4425411483013377  0.5366987059567236  0.4946286946128566   T   T   T
  0.4243179742405374  0.5052997709785600  0.4825494023802079   T   T   T
  0.4327356789240469  0.4757663936186489  0.5052562049154901   T   T   T
  0.5463388058701284  0.5211690933798749  0.5280407866490009   T   T   T
  0.5659402639618776  0.5315923968529432  0.4969332294982181   T   T   T
  0.5630019458443272  0.4762439645284999  0.4763936323448377   T   T   T
  0.5433190431551083  0.4652153848599951  0.5072553202206365   T   T   T
  0.5239694230640737  0.4931231182719316  0.5211752607024351   T   T   T
  0.5846862886139732  0.5038184531653798  0.4839171610731796   T   T   T
  0.4254211189410668  0.4818018067638121  0.5311517691776970   T   T   T
  0.4185515707235723  0.4533369481182064  0.4980045705621521   T   T   T
  0.4322718868279196  0.4993558815863324  0.4568200616995881   T   T   T
  0.3971674241819159  0.5096476108117542  0.4817140255377694   T   T   T
  0.4290042528490332  0.5473120111735454  0.5163291857511751   T   T   T
  0.4414504087262614  0.5562657157162647  0.4752339902970988   T   T   T
  0.4940905678774499  0.5522281078580704  0.5070528212175347   T   T   T
  0.5321359808994259  0.5422386751468338  0.5384129312064374   T   T   T
  0.5843160209961198  0.5511129268524257  0.5028997894375493   T   T   T
  0.5487535513552331  0.5411657910521512  0.4774931682012706   T   T   T
  0.5454462401129376  0.4833617305256155  0.4561666483945004   T   T   T
  0.5609888288732847  0.4564961953855970  0.5265500727358514   T   T   T
  0.5268946336199036  0.4442118032592361  0.5009152553492697   T   T   T
  0.5792034485258952  0.4560131895573036  0.4672860881839469   T   T   T
  0.5643054449071698  0.5129453075480725  0.5472954731147652   T   T   T
  0.4762802552837329  0.4562629284775568  0.4799693018930924   T   T   T
  0.4766568008211465  0.4497863986108115  0.5236046007767925   T   T   T
 
  0.00000000E+00  0.00000000E+00  0.00000000E+00
  0.00000000E+00  0.00000000E+00  0.00000000E+00
  0.00000000E+00  0.00000000E+00  0.00000000E+00
  0.00000000E+00  0.00000000E+00  0.00000000E+00
  0.00000000E+00  0.00000000E+00  0.00000000E+00
  0.00000000E+00  0.00000000E+00  0.00000000E+00
  0.00000000E+00  0.00000000E+00  0.00000000E+00
  0.00000000E+00  0.00000000E+00  0.00000000E+00
  0.00000000E+00  0.00000000E+00  0.00000000E+00
  0.00000000E+00  0.00000000E+00  0.00000000E+00
  0.00000000E+00  0.00000000E+00  0.00000000E+00
  0.00000000E+00  0.00000000E+00  0.00000000E+00
  0.00000000E+00  0.00000000E+00  0.00000000E+00
  0.00000000E+00  0.00000000E+00  0.00000000E+00
  0.00000000E+00  0.00000000E+00  0.00000000E+00
  0.00000000E+00  0.00000000E+00  0.00000000E+00
  0.00000000E+00  0.00000000E+00  0.00000000E+00
  0.00000000E+00  0.00000000E+00  0.00000000E+00
  0.00000000E+00  0.00000000E+00  0.00000000E+00
  0.00000000E+00  0.00000000E+00  0.00000000E+00
  0.00000000E+00  0.00000000E+00  0.00000000E+00
  0.00000000E+00  0.00000000E+00  0.00000000E+00
  0.00000000E+00  0.00000000E+00  0.00000000E+00
  0.00000000E+00  0.00000000E+00  0.00000000E+00
  0.00000000E+00  0.00000000E+00  0.00000000E+00
  0.00000000E+00  0.00000000E+00  0.00000000E+00
  0.00000000E+00  0.00000000E+00  0.00000000E+00
  0.00000000E+00  0.00000000E+00  0.00000000E+00
  0.00000000E+00  0.00000000E+00  0.00000000E+00
