!r2SCANh freq aug-cc-pVTZ d3 TightSCF SlowConv RIJCOSX defgrid2

%pal
nprocs 12
end

%scf
MaxIter 1500
end

%maxcore 5000

!CPCM
%cpcm smd true
SMDsolvent "MeCN"
surfacetype gepol_ses
rsolv 2.19
end 

* xyz -1 2
C          -1.17013457603949     -1.24974204953921     -0.00052742111458
C          -2.51179811798633     -0.94472995780870     -0.00056145205774
C          -2.95613045357807      0.38491615548480     -0.00018724672558
C          -1.99583501959097      1.40730380623080      0.00031890250342
C          -0.64712770143191      1.12954972948871      0.00039453712511
C          -0.17499688078084     -0.21634597616530     -0.00004074744951
C           1.16824357151283     -0.62757066800441      0.00022036032381
O           1.68937321591770     -1.73064054751012      0.00013281466718
Cl          2.41875162728163      0.84577804009536      0.00035081674087
H           0.06695365386672      1.93918484405995      0.00109895797191
H          -2.31670506281423      2.44220109660614      0.00117817439652
H          -4.01223662164045      0.61612646437370     -0.00001217335860
H          -3.23463957246173     -1.75209465731976     -0.00094485257005
H          -0.84439536225483     -2.28092627999198     -0.00087517045275
*
