C O S H                                 
   1.00000000000000     
    40.0000000000000000    0.0000000000000000    0.0000000000000000
     0.0000000000000000   40.0000000000000000    0.0000000000000000
     0.0000000000000000    0.0000000000000000   40.0000000000000000
   C    O    S    H 
     7     1     1     8
Selective dynamics
Direct
  0.5516602961625026  0.5014462906395352  0.4977661650429752   T   T   T
  0.5365994035390997  0.5331602952790604  0.4991763202529569   T   T   T
  0.5020354258799529  0.5362268865811615  0.5010448083896719   T   T   T
  0.4816354046272835  0.5076609540774157  0.5019379324992954   T   T   T
  0.4964741200582310  0.4759385810896930  0.5010011006298782   T   T   T
  0.5312416441636501  0.4730399747104173  0.4987603654494919   T   T   T
  0.4263503576913124  0.4847785605166379  0.5035170525519987   T   T   T
  0.4478726747710695  0.5133578000021757  0.5036210533770173   T   T   T
  0.5955443242952612  0.4957269267697484  0.4955778151526644   T   T   T
  0.5423554131427650  0.4481634763697073  0.4976388980411315   T   T   T
  0.4813850052912088  0.4533068024806610  0.5016915352495701   T   T   T
  0.4008335924917077  0.4946283206504916  0.5043487255080024   T   T   T
  0.4296569444400546  0.4698427764057840  0.4806061080666382   T   T   T
  0.4307097646006568  0.4688165388607075  0.5255428934588480   T   T   T
  0.4903356625589907  0.5608233311805009  0.5018998905050438   T   T   T
  0.5519813547589649  0.5556657723797258  0.4987612097818115   T   T   T
  0.6033266115272582  0.5274177120065957  0.4871061260430096   T   T   T
 
  0.00000000E+00  0.00000000E+00  0.00000000E+00
  0.00000000E+00  0.00000000E+00  0.00000000E+00
  0.00000000E+00  0.00000000E+00  0.00000000E+00
  0.00000000E+00  0.00000000E+00  0.00000000E+00
  0.00000000E+00  0.00000000E+00  0.00000000E+00
  0.00000000E+00  0.00000000E+00  0.00000000E+00
  0.00000000E+00  0.00000000E+00  0.00000000E+00
  0.00000000E+00  0.00000000E+00  0.00000000E+00
  0.00000000E+00  0.00000000E+00  0.00000000E+00
  0.00000000E+00  0.00000000E+00  0.00000000E+00
  0.00000000E+00  0.00000000E+00  0.00000000E+00
  0.00000000E+00  0.00000000E+00  0.00000000E+00
  0.00000000E+00  0.00000000E+00  0.00000000E+00
  0.00000000E+00  0.00000000E+00  0.00000000E+00
  0.00000000E+00  0.00000000E+00  0.00000000E+00
  0.00000000E+00  0.00000000E+00  0.00000000E+00
  0.00000000E+00  0.00000000E+00  0.00000000E+00
