C N H                                   
   1.00000000000000     
    40.0000000000000000    0.0000000000000000    0.0000000000000000
     0.0000000000000000   40.0000000000000000    0.0000000000000000
     0.0000000000000000    0.0000000000000000   40.0000000000000000
   C    N    H 
     6     1    15
Selective dynamics
Direct
  0.4470855642139996  0.4701487310466717  0.4924159155159266   T   T   T
  0.4686100491203445  0.5020495268261917  0.4931949250255841   T   T   T
  0.5320254184697505  0.4946226477101272  0.4914502473526196   T   T   T
  0.5434923071437304  0.5316036486742022  0.4899696023198259   T   T   T
  0.5573404739660310  0.4722476428779983  0.5087472923683762   T   T   T
  0.4517174529718349  0.5301420358326423  0.5129378677119830   T   T   T
  0.5002644549733332  0.4939102364288281  0.5085201210474112   T   T   T
  0.5001588909239022  0.4886849310438917  0.5335247548376910   T   T   T
  0.5479070800975028  0.5412540958314296  0.5150707928450748   T   T   T
  0.5252701805996884  0.5473131836489908  0.4771854918149083   T   T   T
  0.5668874987576307  0.5321400543836413  0.4759811217225866   T   T   T
  0.5487530270728640  0.4464119132312311  0.5098536959741748   T   T   T
  0.5806636661237392  0.4728792391721844  0.4946963311292539   T   T   T
  0.5625853598497536  0.4810958990776104  0.5340277978503545   T   T   T
  0.5269735028584108  0.4863465373473529  0.4658202326495306   T   T   T
  0.4670548182291359  0.5526476442958737  0.5133911513446728   T   T   T
  0.4464481277422927  0.5223550756779043  0.5385485022628954   T   T   T
  0.4280324394576143  0.5359387140153219  0.5007714257252838   T   T   T
  0.4742272329269387  0.5100321585261521  0.4676851648066634   T   T   T
  0.4592904766396703  0.4502320930521870  0.4784115106833224   T   T   T
  0.4416241640887698  0.4614793814378516  0.5176842453485322   T   T   T
  0.4235868137730440  0.4764666098617390  0.4801128096633336   T   T   T
 
  0.00000000E+00  0.00000000E+00  0.00000000E+00
  0.00000000E+00  0.00000000E+00  0.00000000E+00
  0.00000000E+00  0.00000000E+00  0.00000000E+00
  0.00000000E+00  0.00000000E+00  0.00000000E+00
  0.00000000E+00  0.00000000E+00  0.00000000E+00
  0.00000000E+00  0.00000000E+00  0.00000000E+00
  0.00000000E+00  0.00000000E+00  0.00000000E+00
  0.00000000E+00  0.00000000E+00  0.00000000E+00
  0.00000000E+00  0.00000000E+00  0.00000000E+00
  0.00000000E+00  0.00000000E+00  0.00000000E+00
  0.00000000E+00  0.00000000E+00  0.00000000E+00
  0.00000000E+00  0.00000000E+00  0.00000000E+00
  0.00000000E+00  0.00000000E+00  0.00000000E+00
  0.00000000E+00  0.00000000E+00  0.00000000E+00
  0.00000000E+00  0.00000000E+00  0.00000000E+00
  0.00000000E+00  0.00000000E+00  0.00000000E+00
  0.00000000E+00  0.00000000E+00  0.00000000E+00
  0.00000000E+00  0.00000000E+00  0.00000000E+00
  0.00000000E+00  0.00000000E+00  0.00000000E+00
  0.00000000E+00  0.00000000E+00  0.00000000E+00
  0.00000000E+00  0.00000000E+00  0.00000000E+00
  0.00000000E+00  0.00000000E+00  0.00000000E+00
