C N H                                   
   1.00000000000000     
    40.0000000000000000    0.0000000000000000    0.0000000000000000
     0.0000000000000000   40.0000000000000000    0.0000000000000000
     0.0000000000000000    0.0000000000000000   40.0000000000000000
   C    N    H 
     9     1     7
Selective dynamics
Direct
  0.5290020731043654  0.4682339284243469  0.5000000000000000   T   T   T
  0.5592974443956962  0.4864394417647659  0.5000000000000000   T   T   T
  0.5587435582713809  0.5211832655785784  0.5000000000000000   T   T   T
  0.5279875627915800  0.5384115625341082  0.5000000000000000   T   T   T
  0.4971014236565381  0.5206074940438867  0.5000000000000000   T   T   T
  0.4394917353833705  0.5214465491135485  0.5000000000000000   T   T   T
  0.4374016760065800  0.4864311836491808  0.5000000000000000   T   T   T
  0.4669382433034457  0.4677598522420467  0.5000000000000000   T   T   T
  0.4977521100658393  0.4848892752925664  0.5000000000000000   T   T   T
  0.4684289678527449  0.5385055410282433  0.5000000000000000   T   T   T
  0.4663616311605807  0.4404979750239804  0.5000000000000000   T   T   T
  0.4130876193903745  0.4741660385627000  0.5000000000000000   T   T   T
  0.4167612735044628  0.5365282072635082  0.5000000000000000   T   T   T
  0.5270845552151755  0.5656652409346989  0.5000000000000000   T   T   T
  0.5820269819870916  0.5352822843232588  0.5000000000000000   T   T   T
  0.5829718026453108  0.4729911530488877  0.5000000000000000   T   T   T
  0.5295623412654820  0.4409600071717250  0.5000000000000000   T   T   T
 
  0.00000000E+00  0.00000000E+00  0.00000000E+00
  0.00000000E+00  0.00000000E+00  0.00000000E+00
  0.00000000E+00  0.00000000E+00  0.00000000E+00
  0.00000000E+00  0.00000000E+00  0.00000000E+00
  0.00000000E+00  0.00000000E+00  0.00000000E+00
  0.00000000E+00  0.00000000E+00  0.00000000E+00
  0.00000000E+00  0.00000000E+00  0.00000000E+00
  0.00000000E+00  0.00000000E+00  0.00000000E+00
  0.00000000E+00  0.00000000E+00  0.00000000E+00
  0.00000000E+00  0.00000000E+00  0.00000000E+00
  0.00000000E+00  0.00000000E+00  0.00000000E+00
  0.00000000E+00  0.00000000E+00  0.00000000E+00
  0.00000000E+00  0.00000000E+00  0.00000000E+00
  0.00000000E+00  0.00000000E+00  0.00000000E+00
  0.00000000E+00  0.00000000E+00  0.00000000E+00
  0.00000000E+00  0.00000000E+00  0.00000000E+00
  0.00000000E+00  0.00000000E+00  0.00000000E+00
