C N O H                                 
   1.00000000000000     
    40.0000000000000000    0.0000000000000000    0.0000000000000000
     0.0000000000000000   40.0000000000000000    0.0000000000000000
     0.0000000000000000    0.0000000000000000   40.0000000000000000
   C    N    O    H 
    10     1     1    13
Selective dynamics
Direct
  0.4677245115937531  0.5294459133380701  0.5017298667072846   T   T   T
  0.4342725675841225  0.5328568198443344  0.4928988888702727   T   T   T
  0.4135089719294076  0.5051640916903221  0.4900529819294299   T   T   T
  0.4270016111158341  0.4736702543200530  0.4963174459105879   T   T   T
  0.4602372600413320  0.4699009615936467  0.5053491820790353   T   T   T
  0.4815275378871500  0.4978082624405634  0.5085013156990811   T   T   T
  0.5342313428472931  0.4652399117436440  0.5084305741895999   T   T   T
  0.5551604618327870  0.4748963839548132  0.4780838222053198   T   T   T
  0.5565352847452784  0.5311074049011598  0.4950532505248409   T   T   T
  0.5357651498660457  0.5224976223989019  0.5257493986296938   T   T   T
  0.5142985824472064  0.4937157278230923  0.5196778812732706   T   T   T
  0.5761310217506005  0.5029032062451149  0.4851750518829961   T   T   T
  0.5507941947588760  0.4575788725365070  0.5288481163283677   T   T   T
  0.5182409979097266  0.4441535279300397  0.5021712584688451   T   T   T
  0.5385446370576661  0.4809817698770863  0.4569845253630775   T   T   T
  0.5717807361456535  0.4545333654586888  0.4707552438418617   T   T   T
  0.5741747061956948  0.5512382830775762  0.5003573332917336   T   T   T
  0.5402342416497959  0.5386885128756357  0.4742228545021737   T   T   T
  0.5210093990631856  0.5437875451959028  0.5341594727801535   T   T   T
  0.5528697702028635  0.5157997282307387  0.5460831508941788   T   T   T
  0.4694982875835956  0.4450878580767814  0.5109357007760662   T   T   T
  0.4113440689295055  0.4516003650961303  0.4945339237799564   T   T   T
  0.3874748777146557  0.5079745381907546  0.4831514976791658   T   T   T
  0.4245754531678722  0.5576806311817226  0.4878638335848556   T   T   T
  0.4830613259800853  0.5516894419787115  0.5029144288081701   T   T   T
 
  0.00000000E+00  0.00000000E+00  0.00000000E+00
  0.00000000E+00  0.00000000E+00  0.00000000E+00
  0.00000000E+00  0.00000000E+00  0.00000000E+00
  0.00000000E+00  0.00000000E+00  0.00000000E+00
  0.00000000E+00  0.00000000E+00  0.00000000E+00
  0.00000000E+00  0.00000000E+00  0.00000000E+00
  0.00000000E+00  0.00000000E+00  0.00000000E+00
  0.00000000E+00  0.00000000E+00  0.00000000E+00
  0.00000000E+00  0.00000000E+00  0.00000000E+00
  0.00000000E+00  0.00000000E+00  0.00000000E+00
  0.00000000E+00  0.00000000E+00  0.00000000E+00
  0.00000000E+00  0.00000000E+00  0.00000000E+00
  0.00000000E+00  0.00000000E+00  0.00000000E+00
  0.00000000E+00  0.00000000E+00  0.00000000E+00
  0.00000000E+00  0.00000000E+00  0.00000000E+00
  0.00000000E+00  0.00000000E+00  0.00000000E+00
  0.00000000E+00  0.00000000E+00  0.00000000E+00
  0.00000000E+00  0.00000000E+00  0.00000000E+00
  0.00000000E+00  0.00000000E+00  0.00000000E+00
  0.00000000E+00  0.00000000E+00  0.00000000E+00
  0.00000000E+00  0.00000000E+00  0.00000000E+00
  0.00000000E+00  0.00000000E+00  0.00000000E+00
  0.00000000E+00  0.00000000E+00  0.00000000E+00
  0.00000000E+00  0.00000000E+00  0.00000000E+00
  0.00000000E+00  0.00000000E+00  0.00000000E+00
