C Cl O H                                
   1.00000000000000     
    40.0000000000000000    0.0000000000000000    0.0000000000000000
     0.0000000000000000   40.0000000000000000    0.0000000000000000
     0.0000000000000000    0.0000000000000000   40.0000000000000000
   C    Cl   O    H 
     8     1     1     7
Selective dynamics
Direct
  0.5096630167584735  0.5233232721736556  0.5000149043147175   T   T   T
  0.5443615457272486  0.5238236730216457  0.5000061873775721   T   T   T
  0.5623610953365130  0.4935218534688204  0.4999955146410784   T   T   T
  0.5451870065248201  0.4627533281817477  0.4999956197088480   T   T   T
  0.5105399184426958  0.4623444473852132  0.5000022793894203   T   T   T
  0.4910514735767038  0.4925868219525924  0.5000065311869761   T   T   T
  0.4551559148928064  0.4911693955125074  0.5000051401654346   T   T   T
  0.4354276982396215  0.5237412279158491  0.4999886455933549   T   T   T
  0.6061697610145984  0.4941012636210260  0.4999848670019560   T   T   T
  0.4389275955702061  0.4632945139810332  0.5000120088385387   T   T   T
  0.4408770630071004  0.5393550070063640  0.5220894285687763   T   T   T
  0.4409060723723215  0.5393488471465133  0.4778915855533441   T   T   T
  0.4086176122461609  0.5179277322191709  0.4999729680456042   T   T   T
  0.4972498371613980  0.4385301400849997  0.5000037272588997   T   T   T
  0.5592252649838088  0.4393459327201441  0.4999912039079462   T   T   T
  0.5577597619435153  0.5475960884538580  0.5000164621944663   T   T   T
  0.4965183622020319  0.5472384551548970  0.5000239262530428   T   T   T
 
  0.00000000E+00  0.00000000E+00  0.00000000E+00
  0.00000000E+00  0.00000000E+00  0.00000000E+00
  0.00000000E+00  0.00000000E+00  0.00000000E+00
  0.00000000E+00  0.00000000E+00  0.00000000E+00
  0.00000000E+00  0.00000000E+00  0.00000000E+00
  0.00000000E+00  0.00000000E+00  0.00000000E+00
  0.00000000E+00  0.00000000E+00  0.00000000E+00
  0.00000000E+00  0.00000000E+00  0.00000000E+00
  0.00000000E+00  0.00000000E+00  0.00000000E+00
  0.00000000E+00  0.00000000E+00  0.00000000E+00
  0.00000000E+00  0.00000000E+00  0.00000000E+00
  0.00000000E+00  0.00000000E+00  0.00000000E+00
  0.00000000E+00  0.00000000E+00  0.00000000E+00
  0.00000000E+00  0.00000000E+00  0.00000000E+00
  0.00000000E+00  0.00000000E+00  0.00000000E+00
  0.00000000E+00  0.00000000E+00  0.00000000E+00
  0.00000000E+00  0.00000000E+00  0.00000000E+00
