C N H                                   
   1.00000000000000     
    40.0000000000000000    0.0000000000000000    0.0000000000000000
     0.0000000000000000   40.0000000000000000    0.0000000000000000
     0.0000000000000000    0.0000000000000000   40.0000000000000000
   C    N    H 
     3     2     4
Selective dynamics
Direct
  0.5039580800601449  0.5254040458165782  0.5000009999999975   T   T   T
  0.5254648498080454  0.4960305779248690  0.5000000000000000   T   T   T
  0.5026555565010267  0.4684539916297807  0.5000009999999975   T   T   T
  0.4714483743175336  0.4787278947619005  0.4999990000000025   T   T   T
  0.4734063259198712  0.5142196842227686  0.4999990000000025   T   T   T
  0.4516141770954791  0.5275669264937639  0.4999990000000025   T   T   T
  0.5085118409494054  0.4419572856550584  0.5000009999999975   T   T   T
  0.5525848548246431  0.4958738097712264  0.5000000000000000   T   T   T
  0.5103549405238466  0.5517647837240637  0.5000009999999975   T   T   T
 
  0.00000000E+00  0.00000000E+00  0.00000000E+00
  0.00000000E+00  0.00000000E+00  0.00000000E+00
  0.00000000E+00  0.00000000E+00  0.00000000E+00
  0.00000000E+00  0.00000000E+00  0.00000000E+00
  0.00000000E+00  0.00000000E+00  0.00000000E+00
  0.00000000E+00  0.00000000E+00  0.00000000E+00
  0.00000000E+00  0.00000000E+00  0.00000000E+00
  0.00000000E+00  0.00000000E+00  0.00000000E+00
  0.00000000E+00  0.00000000E+00  0.00000000E+00
