C O H                                   
   1.00000000000000     
    40.0000000000000000    0.0000000000000000    0.0000000000000000
     0.0000000000000000   40.0000000000000000    0.0000000000000000
     0.0000000000000000    0.0000000000000000   40.0000000000000000
   C    O    H 
    13     1    10
Selective dynamics
Direct
  0.4384260921230058  0.5299997978004569  0.5061080138052546   T   T   T
  0.4076365834499651  0.5139927159406126  0.5031311772821823   T   T   T
  0.4679147953058950  0.5140253906550410  0.4954904772713059   T   T   T
  0.4659259073474182  0.4819129256621748  0.4813147594254079   T   T   T
  0.4349618442595949  0.4661167333916551  0.4779023638093762   T   T   T
  0.4058459463369678  0.4820066302853334  0.4889607301897621   T   T   T
  0.5001558334123511  0.5327173851058141  0.4981161373570594   T   T   T
  0.5322312680466407  0.5141646377331817  0.5027997628338647   T   T   T
  0.5619004124017356  0.5286157868398416  0.4906239990773456   T   T   T
  0.5925269393764597  0.5127340980902491  0.4955052358276829   T   T   T
  0.5939774702126260  0.4824826687768321  0.5131178697129818   T   T   T
  0.5646648569815788  0.4681593241723714  0.5257013436272230   T   T   T
  0.5338864571886901  0.4837865128721619  0.5204296103724319   T   T   T
  0.5002867066287040  0.5637396738409881  0.4964351992494191   T   T   T
  0.4335782141139856  0.4413500799256985  0.4665837786654370   T   T   T
  0.3817091932064352  0.4695333969701522  0.4864653648739893   T   T   T
  0.4401650351663551  0.5549696303762287  0.5169227819089287   T   T   T
  0.3849404912974929  0.5263691811204640  0.5118099618877644   T   T   T
  0.4885042743589184  0.4695326941211583  0.4723997649729078   T   T   T
  0.5111608087603171  0.4726835306508442  0.5305804445314721   T   T   T
  0.6179777326046809  0.4701307309243700  0.5170560248464662   T   T   T
  0.5657686844370142  0.4447937018946684  0.5396978139187408   T   T   T
  0.5604712691284699  0.5522969529487974  0.4771827776260743   T   T   T
  0.6153851838546930  0.5238878199008999  0.4856646069269303   T   T   T
 
  0.00000000E+00  0.00000000E+00  0.00000000E+00
  0.00000000E+00  0.00000000E+00  0.00000000E+00
  0.00000000E+00  0.00000000E+00  0.00000000E+00
  0.00000000E+00  0.00000000E+00  0.00000000E+00
  0.00000000E+00  0.00000000E+00  0.00000000E+00
  0.00000000E+00  0.00000000E+00  0.00000000E+00
  0.00000000E+00  0.00000000E+00  0.00000000E+00
  0.00000000E+00  0.00000000E+00  0.00000000E+00
  0.00000000E+00  0.00000000E+00  0.00000000E+00
  0.00000000E+00  0.00000000E+00  0.00000000E+00
  0.00000000E+00  0.00000000E+00  0.00000000E+00
  0.00000000E+00  0.00000000E+00  0.00000000E+00
  0.00000000E+00  0.00000000E+00  0.00000000E+00
  0.00000000E+00  0.00000000E+00  0.00000000E+00
  0.00000000E+00  0.00000000E+00  0.00000000E+00
  0.00000000E+00  0.00000000E+00  0.00000000E+00
  0.00000000E+00  0.00000000E+00  0.00000000E+00
  0.00000000E+00  0.00000000E+00  0.00000000E+00
  0.00000000E+00  0.00000000E+00  0.00000000E+00
  0.00000000E+00  0.00000000E+00  0.00000000E+00
  0.00000000E+00  0.00000000E+00  0.00000000E+00
  0.00000000E+00  0.00000000E+00  0.00000000E+00
  0.00000000E+00  0.00000000E+00  0.00000000E+00
  0.00000000E+00  0.00000000E+00  0.00000000E+00
