C H                                     
   1.00000000000000     
    40.0000000000000000    0.0000000000000000    0.0000000000000000
     0.0000000000000000   40.0000000000000000    0.0000000000000000
     0.0000000000000000    0.0000000000000000   40.0000000000000000
   C    H 
     8    10
Selective dynamics
Direct
  0.4455532967309268  0.4820722946877673  0.5000009157873393   T   T   T
  0.4751863002615720  0.4645856528850190  0.5000005364039026   T   T   T
  0.5057046444961583  0.4816575769972439  0.4999997873856614   T   T   T
  0.5376146599760541  0.4631981285412527  0.4999981708036145   T   T   T
  0.5057046978982837  0.5183421869296780  0.5000004051416340   T   T   T
  0.5376144778000376  0.5368017604011878  0.5000001930902300   T   T   T
  0.4751864842897674  0.5354144843879296  0.5000012806698635   T   T   T
  0.4455530049466305  0.5179276967174721  0.5000013754990960   T   T   T
  0.5526965089930032  0.4700818499352230  0.5218038915576266   T   T   T
  0.5335142207957387  0.4363363338366351  0.5000003043109942   T   T   T
  0.5526928116008720  0.4700789448157998  0.4781889621539910   T   T   T
  0.5526956182728371  0.5299178798606654  0.4781940776539933   T   T   T
  0.5335142045203666  0.5636635419668968  0.4999983395436018   T   T   T
  0.5526935418794723  0.5299209732406673  0.5218088290599874   T   T   T
  0.4218857080144144  0.5310354699487660  0.5000013071251743   T   T   T
  0.4751530326743946  0.5624728337155358  0.5000012208110576   T   T   T
  0.4751531131491716  0.4375270966206446  0.5000001430382781   T   T   T
  0.4218856737002736  0.4689642945116035  0.5000012599639376   T   T   T
 
  0.00000000E+00  0.00000000E+00  0.00000000E+00
  0.00000000E+00  0.00000000E+00  0.00000000E+00
  0.00000000E+00  0.00000000E+00  0.00000000E+00
  0.00000000E+00  0.00000000E+00  0.00000000E+00
  0.00000000E+00  0.00000000E+00  0.00000000E+00
  0.00000000E+00  0.00000000E+00  0.00000000E+00
  0.00000000E+00  0.00000000E+00  0.00000000E+00
  0.00000000E+00  0.00000000E+00  0.00000000E+00
  0.00000000E+00  0.00000000E+00  0.00000000E+00
  0.00000000E+00  0.00000000E+00  0.00000000E+00
  0.00000000E+00  0.00000000E+00  0.00000000E+00
  0.00000000E+00  0.00000000E+00  0.00000000E+00
  0.00000000E+00  0.00000000E+00  0.00000000E+00
  0.00000000E+00  0.00000000E+00  0.00000000E+00
  0.00000000E+00  0.00000000E+00  0.00000000E+00
  0.00000000E+00  0.00000000E+00  0.00000000E+00
  0.00000000E+00  0.00000000E+00  0.00000000E+00
  0.00000000E+00  0.00000000E+00  0.00000000E+00
