C O H                                   
   1.00000000000000     
    40.0000000000000000    0.0000000000000000    0.0000000000000000
     0.0000000000000000   40.0000000000000000    0.0000000000000000
     0.0000000000000000    0.0000000000000000   40.0000000000000000
   C    O    H 
     8     1     8
Selective dynamics
Direct
  0.5103731819635229  0.4765804732409435  0.4999909929239550   T   T   T
  0.5452754329423897  0.4758799848516020  0.4999983663071887   T   T   T
  0.5633509927887204  0.5057763927012644  0.5000046009546750   T   T   T
  0.5464514470048343  0.5364291615108314  0.5000028479856695   T   T   T
  0.5116676972826681  0.5371274294443893  0.4999955597846650   T   T   T
  0.4931725499217237  0.5072321581689891  0.4999914547233288   T   T   T
  0.4557747227906574  0.5092900164172107  0.4999955298342016   T   T   T
  0.4357684749017352  0.4771970670177481  0.5000032056609740   T   T   T
  0.4415178388390899  0.5366635657781842  0.4999961359295213   T   T   T
  0.4090782301208478  0.4832192160755113  0.5000052867394800   T   T   T
  0.4416746228718438  0.4619283648863899  0.5221038138251117   T   T   T
  0.4416700464882624  0.4619182998315168  0.4779099998336136   T   T   T
  0.4980457031598746  0.5607359453900216  0.4999951077596094   T   T   T
  0.5605287603137796  0.5597743100391739  0.5000074506949872   T   T   T
  0.5906160387070400  0.5052259440464866  0.5000129405902243   T   T   T
  0.5583940809531214  0.4519806240684971  0.4999992848502259   T   T   T
  0.4966411789498792  0.4530410465312542  0.4999864216025784   T   T   T
 
  0.00000000E+00  0.00000000E+00  0.00000000E+00
  0.00000000E+00  0.00000000E+00  0.00000000E+00
  0.00000000E+00  0.00000000E+00  0.00000000E+00
  0.00000000E+00  0.00000000E+00  0.00000000E+00
  0.00000000E+00  0.00000000E+00  0.00000000E+00
  0.00000000E+00  0.00000000E+00  0.00000000E+00
  0.00000000E+00  0.00000000E+00  0.00000000E+00
  0.00000000E+00  0.00000000E+00  0.00000000E+00
  0.00000000E+00  0.00000000E+00  0.00000000E+00
  0.00000000E+00  0.00000000E+00  0.00000000E+00
  0.00000000E+00  0.00000000E+00  0.00000000E+00
  0.00000000E+00  0.00000000E+00  0.00000000E+00
  0.00000000E+00  0.00000000E+00  0.00000000E+00
  0.00000000E+00  0.00000000E+00  0.00000000E+00
  0.00000000E+00  0.00000000E+00  0.00000000E+00
  0.00000000E+00  0.00000000E+00  0.00000000E+00
  0.00000000E+00  0.00000000E+00  0.00000000E+00
