C N H                                   
   1.00000000000000     
    40.0000000000000000    0.0000000000000000    0.0000000000000000
     0.0000000000000000   40.0000000000000000    0.0000000000000000
     0.0000000000000000    0.0000000000000000   40.0000000000000000
   C    N    H 
     6     1    15
Selective dynamics
Direct
  0.4696521144555876  0.4992444779202583  0.5217393170890283   T   T   T
  0.4419219075382381  0.4999598113351441  0.4951247208475378   T   T   T
  0.5155905394019478  0.4768006375502757  0.4873584913700745   T   T   T
  0.5147988806588547  0.4418437364484099  0.5026501984532152   T   T   T
  0.5111740658393329  0.5366854260987797  0.4968125409860172   T   T   T
  0.5479676323592204  0.5467773171865884  0.4994536271727455   T   T   T
  0.5043436646747042  0.5031981265129343  0.5102087186201352   T   T   T
  0.4174455115521193  0.4974578095383715  0.5073960111628700   T   T   T
  0.4443044032055528  0.4792887723545945  0.4771603618237328   T   T   T
  0.4418327046978883  0.5235519014181762  0.4810130865776781   T   T   T
  0.4680521264988145  0.4755937737754093  0.5357032673089906   T   T   T
  0.4650616993283979  0.5192784146394730  0.5400641931657486   T   T   T
  0.4891711354312044  0.4327495140138588  0.5066019968559525   T   T   T
  0.5273573043457608  0.4240845871515375  0.4858649758506491   T   T   T
  0.5278206533681792  0.4415044048218149  0.5268689250154871   T   T   T
  0.5009777029617861  0.4768764213742289  0.4636637144203760   T   T   T
  0.5414817579550532  0.4827020315354233  0.4802340378265226   T   T   T
  0.5642755297507406  0.5309920624272195  0.4839753280316730   T   T   T
  0.5565976254989946  0.5450037423077746  0.5254933513842167   T   T   T
  0.5512266255623733  0.5727357641407429  0.4909904429006910   T   T   T
  0.5029086134348032  0.5391117032387195  0.4703526884852072   T   T   T
  0.4960388014804364  0.5545605642102628  0.5112700046514510   T   T   T
 
  0.00000000E+00  0.00000000E+00  0.00000000E+00
  0.00000000E+00  0.00000000E+00  0.00000000E+00
  0.00000000E+00  0.00000000E+00  0.00000000E+00
  0.00000000E+00  0.00000000E+00  0.00000000E+00
  0.00000000E+00  0.00000000E+00  0.00000000E+00
  0.00000000E+00  0.00000000E+00  0.00000000E+00
  0.00000000E+00  0.00000000E+00  0.00000000E+00
  0.00000000E+00  0.00000000E+00  0.00000000E+00
  0.00000000E+00  0.00000000E+00  0.00000000E+00
  0.00000000E+00  0.00000000E+00  0.00000000E+00
  0.00000000E+00  0.00000000E+00  0.00000000E+00
  0.00000000E+00  0.00000000E+00  0.00000000E+00
  0.00000000E+00  0.00000000E+00  0.00000000E+00
  0.00000000E+00  0.00000000E+00  0.00000000E+00
  0.00000000E+00  0.00000000E+00  0.00000000E+00
  0.00000000E+00  0.00000000E+00  0.00000000E+00
  0.00000000E+00  0.00000000E+00  0.00000000E+00
  0.00000000E+00  0.00000000E+00  0.00000000E+00
  0.00000000E+00  0.00000000E+00  0.00000000E+00
  0.00000000E+00  0.00000000E+00  0.00000000E+00
  0.00000000E+00  0.00000000E+00  0.00000000E+00
  0.00000000E+00  0.00000000E+00  0.00000000E+00
