C N H                                   
   1.00000000000000     
    40.0000000000000000    0.0000000000000000    0.0000000000000000
     0.0000000000000000   40.0000000000000000    0.0000000000000000
     0.0000000000000000    0.0000000000000000   40.0000000000000000
   C    N    H 
     3     2     4
Selective dynamics
Direct
  0.5039937288560047  0.5254749093425718  0.5000009999999975   T   T   T
  0.5254596745666504  0.4959573234504122  0.5000000000000000   T   T   T
  0.5026976336859625  0.4685213403550054  0.5000009999999975   T   T   T
  0.4713875062186517  0.4787322979806481  0.4999990000000025   T   T   T
  0.4734106725348087  0.5141933314324164  0.4999990000000025   T   T   T
  0.4515989359010673  0.5274147781874465  0.4999990000000025   T   T   T
  0.5084258525249661  0.4419871518244621  0.5000009999999975   T   T   T
  0.5526133429140599  0.4958409677214646  0.5000000000000000   T   T   T
  0.5104116527978166  0.5518768997055751  0.5000009999999975   T   T   T
 
  0.00000000E+00  0.00000000E+00  0.00000000E+00
  0.00000000E+00  0.00000000E+00  0.00000000E+00
  0.00000000E+00  0.00000000E+00  0.00000000E+00
  0.00000000E+00  0.00000000E+00  0.00000000E+00
  0.00000000E+00  0.00000000E+00  0.00000000E+00
  0.00000000E+00  0.00000000E+00  0.00000000E+00
  0.00000000E+00  0.00000000E+00  0.00000000E+00
  0.00000000E+00  0.00000000E+00  0.00000000E+00
  0.00000000E+00  0.00000000E+00  0.00000000E+00
