C H                                     
   1.00000000000000     
    40.0000000000000000    0.0000000000000000    0.0000000000000000
     0.0000000000000000   40.0000000000000000    0.0000000000000000
     0.0000000000000000    0.0000000000000000   40.0000000000000000
   C    H 
     8     6
Selective dynamics
Direct
  0.5340933939147234  0.4691201426398379  0.4999996265701725   T   T   T
  0.5513878483352528  0.5000008551316242  0.5000003814824794   T   T   T
  0.5340907305651470  0.5308799665776220  0.4999997043952504   T   T   T
  0.4996899870913438  0.5311920176692198  0.4999976579138377   T   T   T
  0.4818260362739863  0.4999982093301938  0.4999966315664253   T   T   T
  0.4996928109820260  0.4688062324070685  0.4999972296516120   T   T   T
  0.4471355653614353  0.4999985717900657  0.4999990038398323   T   T   T
  0.4164175209636625  0.4999996310397279  0.5000003160991682   T   T   T
  0.4856279425220222  0.4455002401724357  0.4999978508292671   T   T   T
  0.3895561572396034  0.5000036195335582  0.5000097162170789   T   T   T
  0.4856234810047440  0.5544968249848239  0.4999981206681454   T   T   T
  0.5481009135323802  0.5542136960994597  0.5000012197346919   T   T   T
  0.5786528187962574  0.5000016776650540  0.5000013885310892   T   T   T
  0.5481047934174228  0.4457873149592899  0.5000011525009498   T   T   T
 
  0.00000000E+00  0.00000000E+00  0.00000000E+00
  0.00000000E+00  0.00000000E+00  0.00000000E+00
  0.00000000E+00  0.00000000E+00  0.00000000E+00
  0.00000000E+00  0.00000000E+00  0.00000000E+00
  0.00000000E+00  0.00000000E+00  0.00000000E+00
  0.00000000E+00  0.00000000E+00  0.00000000E+00
  0.00000000E+00  0.00000000E+00  0.00000000E+00
  0.00000000E+00  0.00000000E+00  0.00000000E+00
  0.00000000E+00  0.00000000E+00  0.00000000E+00
  0.00000000E+00  0.00000000E+00  0.00000000E+00
  0.00000000E+00  0.00000000E+00  0.00000000E+00
  0.00000000E+00  0.00000000E+00  0.00000000E+00
  0.00000000E+00  0.00000000E+00  0.00000000E+00
  0.00000000E+00  0.00000000E+00  0.00000000E+00
