!r2SCAN opt aug-cc-pVTZ d3 TightSCF SlowConv RIJCOSX defgrid2

%pal
nprocs 8
end

%scf
MaxIter 1500
end

%maxcore 3500

!CPCM
%cpcm smd true
SMDsolvent "MeCN"
surfacetype gepol_ses
rsolv 2.19
end 

* xyz 0 1
C          -0.72498712360752     -1.03199143591489     -0.00035587408950
C          -1.31725281953672      0.23700082940336     -0.00009216740947
C          -0.49927603036286      1.37741269983118     -0.00017815340748
C           0.87877130461947      1.25225114649976     -0.00046421372633
C           1.48912617012247     -0.01748708715836     -0.00062594889474
C           0.66252427774642     -1.14934366375667     -0.00064528665934
H           1.11889620163877     -2.14249327366435     -0.00083021648088
C           2.91104462440564     -0.14733894022628     -0.00063151415770
C           4.11990582812650     -0.25742637188868      0.00161358861277
H           5.19058139416864     -0.35415649223885      0.00097524906911
H           1.50779855780145      2.14601626186340     -0.00050473395896
H          -0.98017045333696      2.35860761783862      0.00000793066196
O          -2.64430351331883      0.45808400164866      0.00024605971359
C          -3.51534558275692     -0.63765175952228      0.00045178300619
H          -4.53490407246321     -0.22445155867607      0.00076695107216
H          -3.38161982455796     -1.26589006640153     -0.90098962915142
H          -3.38109122143507     -1.26596319208985      0.90176498266982
H          -1.33393961725331     -1.93771991554716     -0.00032660686979
*
