C H                                     
   1.00000000000000     
    40.0000000000000000    0.0000000000000000    0.0000000000000000
     0.0000000000000000   40.0000000000000000    0.0000000000000000
     0.0000000000000000    0.0000000000000000   40.0000000000000000
   C    H 
     9    12
Selective dynamics
Direct
  0.4730364149469324  0.4768683422866431  0.4999301566296595   T   T   T
  0.5051820645319651  0.4646472134680906  0.4999612007654761   T   T   T
  0.5131798600888615  0.4281756996929715  0.5000220153151815   T   T   T
  0.5320280121947931  0.4884961331699529  0.4999586471044850   T   T   T
  0.5267163640477932  0.5239245476209504  0.4998860055784249   T   T   T
  0.5557584924278345  0.5474946212617269  0.4999617706682997   T   T   T
  0.4940550687614902  0.5351216263039547  0.4998569594473565   T   T   T
  0.4667874478853662  0.5121522283377971  0.4998954544666319   T   T   T
  0.4319557970895573  0.5243145098196322  0.4999508402200163   T   T   T
  0.4905008578779686  0.4128405928986609  0.4991702596327698   T   T   T
  0.5275720083849507  0.4216113734439588  0.5225588136347099   T   T   T
  0.5291675348855733  0.4218290192294489  0.4785348520970345   T   T   T
  0.5797361300731438  0.5343541362047546  0.4984055029218126   T   T   T
  0.5538196971119689  0.5651117589244947  0.4789430084360475   T   T   T
  0.5555394661713535  0.5626668180261163  0.5229229664807420   T   T   T
  0.4180651252398349  0.5131313782316909  0.4788748777144747   T   T   T
  0.4300229352787994  0.5515821642326060  0.4990742576493616   T   T   T
  0.4189094611657822  0.5147932804807596  0.5223828378424145   T   T   T
  0.4885840719078445  0.5618248396512371  0.4998008271538339   T   T   T
  0.5576876473691499  0.4791620900616920  0.4999788774725289   T   T   T
  0.4516955425590297  0.4598976266528396  0.4999298687687244   T   T   T
 
  0.00000000E+00  0.00000000E+00  0.00000000E+00
  0.00000000E+00  0.00000000E+00  0.00000000E+00
  0.00000000E+00  0.00000000E+00  0.00000000E+00
  0.00000000E+00  0.00000000E+00  0.00000000E+00
  0.00000000E+00  0.00000000E+00  0.00000000E+00
  0.00000000E+00  0.00000000E+00  0.00000000E+00
  0.00000000E+00  0.00000000E+00  0.00000000E+00
  0.00000000E+00  0.00000000E+00  0.00000000E+00
  0.00000000E+00  0.00000000E+00  0.00000000E+00
  0.00000000E+00  0.00000000E+00  0.00000000E+00
  0.00000000E+00  0.00000000E+00  0.00000000E+00
  0.00000000E+00  0.00000000E+00  0.00000000E+00
  0.00000000E+00  0.00000000E+00  0.00000000E+00
  0.00000000E+00  0.00000000E+00  0.00000000E+00
  0.00000000E+00  0.00000000E+00  0.00000000E+00
  0.00000000E+00  0.00000000E+00  0.00000000E+00
  0.00000000E+00  0.00000000E+00  0.00000000E+00
  0.00000000E+00  0.00000000E+00  0.00000000E+00
  0.00000000E+00  0.00000000E+00  0.00000000E+00
  0.00000000E+00  0.00000000E+00  0.00000000E+00
  0.00000000E+00  0.00000000E+00  0.00000000E+00
