C H                                     
   1.00000000000000     
    40.0000000000000000    0.0000000000000000    0.0000000000000000
     0.0000000000000000   40.0000000000000000    0.0000000000000000
     0.0000000000000000    0.0000000000000000   40.0000000000000000
   C    H 
    14    12
Selective dynamics
Direct
  0.5600223785568567  0.4795118747502935  0.5169554837103958   T   T   T
  0.5318215202000715  0.4903312531215256  0.4989847477416113   T   T   T
  0.5345936416630543  0.5195230826237067  0.4795366183742589   T   T   T
  0.5647406672246453  0.5369789720167315  0.4776617622613474   T   T   T
  0.5926689789489702  0.5258163852088235  0.4954983860000564   T   T   T
  0.5901555656599278  0.4970385847808434  0.5151976183887865   T   T   T
  0.5000000000000000  0.4712046804038930  0.5000000000000000   T   T   T
  0.5000000000000000  0.4374470534057676  0.4999990000000025   T   T   T
  0.4681784797999288  0.4903312531215256  0.5010152522583887   T   T   T
  0.4399776214431434  0.4795128747502981  0.4830445162896044   T   T   T
  0.4098444343400721  0.4970395847808409  0.4848023816112134   T   T   T
  0.4073310210510298  0.5258173852088209  0.5045016139999436   T   T   T
  0.4352593327753547  0.5369789720167315  0.5223392377386643   T   T   T
  0.4654063583369457  0.5195230826237067  0.5204643816257458   T   T   T
  0.6116688993029967  0.4883872453767993  0.5295298862949265   T   T   T
  0.6161575363002155  0.5395781616409397  0.4942132041290311   T   T   T
  0.5664252947260766  0.5593984932309074  0.4622474633786332   T   T   T
  0.5129461412367019  0.5283981730149828  0.4655382378948546   T   T   T
  0.4768207585548772  0.4232487075006028  0.5018702159844284   T   T   T
  0.5231782414451253  0.4232477075005982  0.4981277840155695   T   T   T
  0.4870538587632982  0.5283971730149853  0.5344627621051428   T   T   T
  0.4335747052739234  0.5593974932309099  0.5377545366213686   T   T   T
  0.3838424636997844  0.5395791616409443  0.5057877958709662   T   T   T
  0.3883311006970034  0.4883882453767968  0.4704691137050760   T   T   T
  0.4419508379495646  0.4574616998290099  0.4671324409501212   T   T   T
  0.5580491620504353  0.4574606998290124  0.5328655590498768   T   T   T
 
  0.00000000E+00  0.00000000E+00  0.00000000E+00
  0.00000000E+00  0.00000000E+00  0.00000000E+00
  0.00000000E+00  0.00000000E+00  0.00000000E+00
  0.00000000E+00  0.00000000E+00  0.00000000E+00
  0.00000000E+00  0.00000000E+00  0.00000000E+00
  0.00000000E+00  0.00000000E+00  0.00000000E+00
  0.00000000E+00  0.00000000E+00  0.00000000E+00
  0.00000000E+00  0.00000000E+00  0.00000000E+00
  0.00000000E+00  0.00000000E+00  0.00000000E+00
  0.00000000E+00  0.00000000E+00  0.00000000E+00
  0.00000000E+00  0.00000000E+00  0.00000000E+00
  0.00000000E+00  0.00000000E+00  0.00000000E+00
  0.00000000E+00  0.00000000E+00  0.00000000E+00
  0.00000000E+00  0.00000000E+00  0.00000000E+00
  0.00000000E+00  0.00000000E+00  0.00000000E+00
  0.00000000E+00  0.00000000E+00  0.00000000E+00
  0.00000000E+00  0.00000000E+00  0.00000000E+00
  0.00000000E+00  0.00000000E+00  0.00000000E+00
  0.00000000E+00  0.00000000E+00  0.00000000E+00
  0.00000000E+00  0.00000000E+00  0.00000000E+00
  0.00000000E+00  0.00000000E+00  0.00000000E+00
  0.00000000E+00  0.00000000E+00  0.00000000E+00
  0.00000000E+00  0.00000000E+00  0.00000000E+00
  0.00000000E+00  0.00000000E+00  0.00000000E+00
  0.00000000E+00  0.00000000E+00  0.00000000E+00
  0.00000000E+00  0.00000000E+00  0.00000000E+00
