C N O H                                 
   1.00000000000000     
    40.0000000000000000    0.0000000000000000    0.0000000000000000
     0.0000000000000000   40.0000000000000000    0.0000000000000000
     0.0000000000000000    0.0000000000000000   40.0000000000000000
   C    N    O    H 
     7     1     1     7
Selective dynamics
Direct
  0.5159151840202441  0.4685197294885270  0.5000000000000000   T   T   T
  0.5503164295114757  0.4745307342959393  0.5000000000000000   T   T   T
  0.5623538243668875  0.5073351590722979  0.5000000000000000   T   T   T
  0.5397437853706677  0.5341381762690816  0.5000000000000000   T   T   T
  0.5054275143496056  0.5282637715088043  0.5000000000000000   T   T   T
  0.4930158586661051  0.4952456917231984  0.5000000000000000   T   T   T
  0.4572641371805162  0.4875578256950774  0.5000000000000000   T   T   T
  0.4349982379045869  0.5108679007566295  0.5000000000000000   T   T   T
  0.4024658258441605  0.4975309706594189  0.5000009999999975   T   T   T
  0.3882921162067419  0.5174199328783402  0.5000009999999975   T   T   T
  0.4496679232029379  0.4611531902276766  0.5000000000000000   T   T   T
  0.4879595042434559  0.5491870025943726  0.5000000000000000   T   T   T
  0.5490581140899593  0.5597817628940618  0.5000000000000000   T   T   T
  0.5892119328903718  0.5120862368484040  0.4999990000000025   T   T   T
  0.5677105456589615  0.4535242183085799  0.4999990000000025   T   T   T
  0.5066000664933128  0.4428576967795834  0.5000000000000000   T   T   T
 
  0.00000000E+00  0.00000000E+00  0.00000000E+00
  0.00000000E+00  0.00000000E+00  0.00000000E+00
  0.00000000E+00  0.00000000E+00  0.00000000E+00
  0.00000000E+00  0.00000000E+00  0.00000000E+00
  0.00000000E+00  0.00000000E+00  0.00000000E+00
  0.00000000E+00  0.00000000E+00  0.00000000E+00
  0.00000000E+00  0.00000000E+00  0.00000000E+00
  0.00000000E+00  0.00000000E+00  0.00000000E+00
  0.00000000E+00  0.00000000E+00  0.00000000E+00
  0.00000000E+00  0.00000000E+00  0.00000000E+00
  0.00000000E+00  0.00000000E+00  0.00000000E+00
  0.00000000E+00  0.00000000E+00  0.00000000E+00
  0.00000000E+00  0.00000000E+00  0.00000000E+00
  0.00000000E+00  0.00000000E+00  0.00000000E+00
  0.00000000E+00  0.00000000E+00  0.00000000E+00
  0.00000000E+00  0.00000000E+00  0.00000000E+00
