C O H                                   
   1.00000000000000     
    40.0000000000000000    0.0000000000000000    0.0000000000000000
     0.0000000000000000   40.0000000000000000    0.0000000000000000
     0.0000000000000000    0.0000000000000000   40.0000000000000000
   C    O    H 
     4     2     8
Selective dynamics
Direct
  0.5189482167362639  0.4706941193196955  0.5060362398129274   T   T   T
  0.4810537832637310  0.4706931193196909  0.4939637601870726   T   T   T
  0.4810517832637361  0.5293058806803046  0.4939637601870726   T   T   T
  0.5189462167362690  0.5293068806803092  0.5060362398129274   T   T   T
  0.4671813802200445  0.4999990000000025  0.5070130018587310   T   T   T
  0.5328186197799553  0.5000009999999975  0.4929869981412690   T   T   T
  0.4685537690709797  0.4493867317604371  0.5052610299789287   T   T   T
  0.4808422097155372  0.4704359442511931  0.4667212108036377   T   T   T
  0.5314462309290207  0.5506132682395627  0.4947389700210712   T   T   T
  0.5191577902844627  0.5295640557488069  0.5332787891963624   T   T   T
  0.4685507690709802  0.5506112682395606  0.5052620299789333   T   T   T
  0.4808392097155377  0.5295640557488069  0.4667222108036422   T   T   T
  0.5314492309290202  0.4493887317604392  0.4947379700210666   T   T   T
  0.5191607902844623  0.4704359442511931  0.5332777891963578   T   T   T
 
  0.00000000E+00  0.00000000E+00  0.00000000E+00
  0.00000000E+00  0.00000000E+00  0.00000000E+00
  0.00000000E+00  0.00000000E+00  0.00000000E+00
  0.00000000E+00  0.00000000E+00  0.00000000E+00
  0.00000000E+00  0.00000000E+00  0.00000000E+00
  0.00000000E+00  0.00000000E+00  0.00000000E+00
  0.00000000E+00  0.00000000E+00  0.00000000E+00
  0.00000000E+00  0.00000000E+00  0.00000000E+00
  0.00000000E+00  0.00000000E+00  0.00000000E+00
  0.00000000E+00  0.00000000E+00  0.00000000E+00
  0.00000000E+00  0.00000000E+00  0.00000000E+00
  0.00000000E+00  0.00000000E+00  0.00000000E+00
  0.00000000E+00  0.00000000E+00  0.00000000E+00
  0.00000000E+00  0.00000000E+00  0.00000000E+00
