C O S H                                 
   1.00000000000000     
    40.0000000000000000    0.0000000000000000    0.0000000000000000
     0.0000000000000000   40.0000000000000000    0.0000000000000000
     0.0000000000000000    0.0000000000000000   40.0000000000000000
   C    O    S    H 
    14     2     2    14
Selective dynamics
Direct
  0.5487257810926636  0.5331119823269574  0.5060788247657726   T   T   T
  0.5443497235912460  0.5073949923889742  0.4822779381369529   T   T   T
  0.5702523982188694  0.4856928716282098  0.4754334632209734   T   T   T
  0.6010772820836436  0.4889484939123108  0.4923915248959290   T   T   T
  0.6057401841568861  0.5150094782322583  0.5157726504698417   T   T   T
  0.5797962475274332  0.5370365508628936  0.5222929734695398   T   T   T
  0.6556979898906761  0.4659623566342148  0.5023472582717332   T   T   T
  0.4512792966204273  0.5331256491198886  0.4938754320608183   T   T   T
  0.4556720751184145  0.5074117112954895  0.5176750846719997   T   T   T
  0.4297602906874900  0.4857226421516785  0.5245613369201720   T   T   T
  0.3989173482940842  0.4889978525038785  0.5076366335451468   T   T   T
  0.3942430679098266  0.5150579274020615  0.4842552796700375   T   T   T
  0.4201921653362746  0.5370697623539087  0.4776986069233828   T   T   T
  0.3442971500668008  0.4660095721496234  0.4976864803135470   T   T   T
  0.6242237285738312  0.4657750513996533  0.4847683121888551   T   T   T
  0.3757649476599596  0.4658380770980912  0.5152777681087741   T   T   T
  0.5161920236161066  0.5592489733757660  0.5195914913046025   T   T   T
  0.4838197180306949  0.5592354714766401  0.4803303873050808   T   T   T
  0.5834788450578188  0.5572200907152904  0.5402403986511146   T   T   T
  0.6294573967122830  0.5181130582013012  0.5287169750974172   T   T   T
  0.6516511689262288  0.4633149541253019  0.5294036108054456   T   T   T
  0.6697095002816624  0.4889804564760567  0.4969771079011522   T   T   T
  0.6693890864321403  0.4443129178663128  0.4928285865717683   T   T   T
  0.5671697393445783  0.4653173707640264  0.4576242625118354   T   T   T
  0.5203990453938587  0.5042802499309005  0.4696834021449803   T   T   T
  0.4164972263093816  0.5572571459326454  0.4597561342247616   T   T   T
  0.3705141564203700  0.5181707175619223  0.4713312295441909   T   T   T
  0.3483600223975998  0.4633651366298679  0.4706319996936799   T   T   T
  0.3306106814938801  0.4443571128036297  0.5072016648170745   T   T   T
  0.3302769733366446  0.4890253267314790  0.5030493033428129   T   T   T
  0.4328543763549746  0.4653477975785449  0.5423601047291555   T   T   T
  0.4796313630632270  0.5042882483702655  0.5302407737214665   T   T   T
 
  0.00000000E+00  0.00000000E+00  0.00000000E+00
  0.00000000E+00  0.00000000E+00  0.00000000E+00
  0.00000000E+00  0.00000000E+00  0.00000000E+00
  0.00000000E+00  0.00000000E+00  0.00000000E+00
  0.00000000E+00  0.00000000E+00  0.00000000E+00
  0.00000000E+00  0.00000000E+00  0.00000000E+00
  0.00000000E+00  0.00000000E+00  0.00000000E+00
  0.00000000E+00  0.00000000E+00  0.00000000E+00
  0.00000000E+00  0.00000000E+00  0.00000000E+00
  0.00000000E+00  0.00000000E+00  0.00000000E+00
  0.00000000E+00  0.00000000E+00  0.00000000E+00
  0.00000000E+00  0.00000000E+00  0.00000000E+00
  0.00000000E+00  0.00000000E+00  0.00000000E+00
  0.00000000E+00  0.00000000E+00  0.00000000E+00
  0.00000000E+00  0.00000000E+00  0.00000000E+00
  0.00000000E+00  0.00000000E+00  0.00000000E+00
  0.00000000E+00  0.00000000E+00  0.00000000E+00
  0.00000000E+00  0.00000000E+00  0.00000000E+00
  0.00000000E+00  0.00000000E+00  0.00000000E+00
  0.00000000E+00  0.00000000E+00  0.00000000E+00
  0.00000000E+00  0.00000000E+00  0.00000000E+00
  0.00000000E+00  0.00000000E+00  0.00000000E+00
  0.00000000E+00  0.00000000E+00  0.00000000E+00
  0.00000000E+00  0.00000000E+00  0.00000000E+00
  0.00000000E+00  0.00000000E+00  0.00000000E+00
  0.00000000E+00  0.00000000E+00  0.00000000E+00
  0.00000000E+00  0.00000000E+00  0.00000000E+00
  0.00000000E+00  0.00000000E+00  0.00000000E+00
  0.00000000E+00  0.00000000E+00  0.00000000E+00
  0.00000000E+00  0.00000000E+00  0.00000000E+00
  0.00000000E+00  0.00000000E+00  0.00000000E+00
  0.00000000E+00  0.00000000E+00  0.00000000E+00
