C O H                                   
   1.00000000000000     
    40.0000000000000000    0.0000000000000000    0.0000000000000000
     0.0000000000000000   40.0000000000000000    0.0000000000000000
     0.0000000000000000    0.0000000000000000   40.0000000000000000
   C    O    H 
    13     1    10
Selective dynamics
Direct
  0.4386754745800066  0.5298718113610347  0.5061114782767007   T   T   T
  0.4080071344962424  0.5139791921321990  0.5031047312987331   T   T   T
  0.4680125929324348  0.5138785208694692  0.4955919244534505   T   T   T
  0.4660214322139850  0.4819169371225553  0.4814596974220769   T   T   T
  0.4351741631704492  0.4662591625510030  0.4779777803901467   T   T   T
  0.4062159084315544  0.4821323171609118  0.4889927347585460   T   T   T
  0.5001452582909398  0.5324627024647078  0.4981124702026024   T   T   T
  0.5321162911352528  0.5140049391881544  0.5027186085799052   T   T   T
  0.5616474509027158  0.5284886156531270  0.4906556799583666   T   T   T
  0.5921565352095898  0.5127290798411246  0.4955161772494783   T   T   T
  0.5936210978729781  0.4826283355257605  0.5130737240087563   T   T   T
  0.5644737281373059  0.4683194748896128  0.5256230203718906   T   T   T
  0.5337798075130307  0.4837789978142260  0.5202891824153906   T   T   T
  0.5002696023944866  0.5632818787889613  0.4964274910877676   T   T   T
  0.4337216051943240  0.4416885415870457  0.4666357155085854   T   T   T
  0.3822184056037062  0.4697642822739783  0.4865378389904323   T   T   T
  0.4403564743983528  0.5547086397336969  0.5168050249964702   T   T   T
  0.3854603855412019  0.5263217224731103  0.5117047035786574   T   T   T
  0.4884270728288140  0.4696039726349376  0.4725140295323849   T   T   T
  0.5112454184196105  0.4727330320151675  0.5304750651936623   T   T   T
  0.6175016876354877  0.4704027210037291  0.5169938204915128   T   T   T
  0.5656481436504615  0.4451460575229187  0.5396203008191534   T   T   T
  0.5602559561300055  0.5520276364172682  0.4773123152915920   T   T   T
  0.6148503733170603  0.5238734289752885  0.4857464851237515   T   T   T
 
  0.00000000E+00  0.00000000E+00  0.00000000E+00
  0.00000000E+00  0.00000000E+00  0.00000000E+00
  0.00000000E+00  0.00000000E+00  0.00000000E+00
  0.00000000E+00  0.00000000E+00  0.00000000E+00
  0.00000000E+00  0.00000000E+00  0.00000000E+00
  0.00000000E+00  0.00000000E+00  0.00000000E+00
  0.00000000E+00  0.00000000E+00  0.00000000E+00
  0.00000000E+00  0.00000000E+00  0.00000000E+00
  0.00000000E+00  0.00000000E+00  0.00000000E+00
  0.00000000E+00  0.00000000E+00  0.00000000E+00
  0.00000000E+00  0.00000000E+00  0.00000000E+00
  0.00000000E+00  0.00000000E+00  0.00000000E+00
  0.00000000E+00  0.00000000E+00  0.00000000E+00
  0.00000000E+00  0.00000000E+00  0.00000000E+00
  0.00000000E+00  0.00000000E+00  0.00000000E+00
  0.00000000E+00  0.00000000E+00  0.00000000E+00
  0.00000000E+00  0.00000000E+00  0.00000000E+00
  0.00000000E+00  0.00000000E+00  0.00000000E+00
  0.00000000E+00  0.00000000E+00  0.00000000E+00
  0.00000000E+00  0.00000000E+00  0.00000000E+00
  0.00000000E+00  0.00000000E+00  0.00000000E+00
  0.00000000E+00  0.00000000E+00  0.00000000E+00
  0.00000000E+00  0.00000000E+00  0.00000000E+00
  0.00000000E+00  0.00000000E+00  0.00000000E+00
