C N O H                                 
   1.00000000000000     
    40.0000000000000000    0.0000000000000000    0.0000000000000000
     0.0000000000000000   40.0000000000000000    0.0000000000000000
     0.0000000000000000    0.0000000000000000   40.0000000000000000
   C    N    O    H 
     7     1     1     9
Selective dynamics
Direct
  0.5454385940141565  0.5237928267640971  0.5005754332881909   T   T   T
  0.5162518912673484  0.5426864926114993  0.5006196853709796   T   T   T
  0.4845588273989782  0.5277750726196404  0.5007045571569434   T   T   T
  0.4827233030056401  0.4927434623572489  0.5006895991316969   T   T   T
  0.5118775215460624  0.4733497338256623  0.5006027174210402   T   T   T
  0.5434617045998006  0.4885466044135948  0.5005682441900958   T   T   T
  0.4227819608311761  0.4933559593126300  0.5007245799032392   T   T   T
  0.5723393686823900  0.4691985370761881  0.5020467824646627   T   T   T
  0.4533748187504523  0.4748947719614676  0.5006391740393621   T   T   T
  0.5701797729642922  0.4451479533742081  0.4943446241707555   T   T   T
  0.5936426151943406  0.4802142129468346  0.4938516825704700   T   T   T
  0.5094701741793646  0.4461782570016955  0.5005709233190329   T   T   T
  0.4028013575948526  0.4746435110611687  0.5007210187106365   T   T   T
  0.4204746088348243  0.5091804090546692  0.4782875235004733   T   T   T
  0.4205598093959363  0.5091000187976297  0.5232236331076960   T   T   T
  0.4622144522635397  0.5432622066440655  0.5006768861788498   T   T   T
  0.5180276057208204  0.5699096367818400  0.5005571808556624   T   T   T
  0.5698226137560287  0.5360193333958269  0.5005947546202227   T   T   T
 
  0.00000000E+00  0.00000000E+00  0.00000000E+00
  0.00000000E+00  0.00000000E+00  0.00000000E+00
  0.00000000E+00  0.00000000E+00  0.00000000E+00
  0.00000000E+00  0.00000000E+00  0.00000000E+00
  0.00000000E+00  0.00000000E+00  0.00000000E+00
  0.00000000E+00  0.00000000E+00  0.00000000E+00
  0.00000000E+00  0.00000000E+00  0.00000000E+00
  0.00000000E+00  0.00000000E+00  0.00000000E+00
  0.00000000E+00  0.00000000E+00  0.00000000E+00
  0.00000000E+00  0.00000000E+00  0.00000000E+00
  0.00000000E+00  0.00000000E+00  0.00000000E+00
  0.00000000E+00  0.00000000E+00  0.00000000E+00
  0.00000000E+00  0.00000000E+00  0.00000000E+00
  0.00000000E+00  0.00000000E+00  0.00000000E+00
  0.00000000E+00  0.00000000E+00  0.00000000E+00
  0.00000000E+00  0.00000000E+00  0.00000000E+00
  0.00000000E+00  0.00000000E+00  0.00000000E+00
  0.00000000E+00  0.00000000E+00  0.00000000E+00
