C O H                                   
   1.00000000000000     
    40.0000000000000000    0.0000000000000000    0.0000000000000000
     0.0000000000000000   40.0000000000000000    0.0000000000000000
     0.0000000000000000    0.0000000000000000   40.0000000000000000
   C    O    H 
    12     1    10
Selective dynamics
Direct
  0.5333778237748389  0.4842872583480387  0.5168615432274877   T   T   T
  0.5646485588155233  0.4697331924164108  0.5173543167361251   T   T   T
  0.5917882955668754  0.4857488656060584  0.5021163115090913   T   T   T
  0.5877919504490845  0.5171406611733663  0.4869274550109020   T   T   T
  0.5569151369026518  0.5324480894972557  0.4865855169470532   T   T   T
  0.5297613892443678  0.5153954059705751  0.5008329600349550   T   T   T
  0.4702397909901537  0.5153994889889283  0.4991623889499495   T   T   T
  0.4430914308599324  0.5324552801523800  0.5134138461984898   T   T   T
  0.4122130144861469  0.5171523540263330  0.5130762685164442   T   T   T
  0.4082091403194029  0.4857634965023293  0.4978867225177214   T   T   T
  0.4353447439770267  0.4697431593174893  0.4826439832558531   T   T   T
  0.4666182529051294  0.4842952717412670  0.4831342241950707   T   T   T
  0.5000007768159928  0.5318024367975821  0.4999960916978479   T   T   T
  0.4875657656732031  0.4730542545001307  0.4702296018040629   T   T   T
  0.4317251324958152  0.4461927600054755  0.4698101059169731   T   T   T
  0.3837779839407943  0.4741327893795967  0.4974453227576803   T   T   T
  0.3910031010284504  0.5293855553282083  0.5246139412904175   T   T   T
  0.4471298615751358  0.5565818235345555  0.5249742439813331   T   T   T
  0.5528833283959667  0.5565741226798293  0.4750238291410934   T   T   T
  0.6090052610916630  0.5293682404492752  0.4753959777029779   T   T   T
  0.6162183766552966  0.4741142080157666  0.5025651548535236   T   T   T
  0.5682621078064314  0.4461828325202856  0.5301877225660008   T   T   T
  0.5124267762301297  0.4730494530487965  0.5297614711889490   T   T   T
 
  0.00000000E+00  0.00000000E+00  0.00000000E+00
  0.00000000E+00  0.00000000E+00  0.00000000E+00
  0.00000000E+00  0.00000000E+00  0.00000000E+00
  0.00000000E+00  0.00000000E+00  0.00000000E+00
  0.00000000E+00  0.00000000E+00  0.00000000E+00
  0.00000000E+00  0.00000000E+00  0.00000000E+00
  0.00000000E+00  0.00000000E+00  0.00000000E+00
  0.00000000E+00  0.00000000E+00  0.00000000E+00
  0.00000000E+00  0.00000000E+00  0.00000000E+00
  0.00000000E+00  0.00000000E+00  0.00000000E+00
  0.00000000E+00  0.00000000E+00  0.00000000E+00
  0.00000000E+00  0.00000000E+00  0.00000000E+00
  0.00000000E+00  0.00000000E+00  0.00000000E+00
  0.00000000E+00  0.00000000E+00  0.00000000E+00
  0.00000000E+00  0.00000000E+00  0.00000000E+00
  0.00000000E+00  0.00000000E+00  0.00000000E+00
  0.00000000E+00  0.00000000E+00  0.00000000E+00
  0.00000000E+00  0.00000000E+00  0.00000000E+00
  0.00000000E+00  0.00000000E+00  0.00000000E+00
  0.00000000E+00  0.00000000E+00  0.00000000E+00
  0.00000000E+00  0.00000000E+00  0.00000000E+00
  0.00000000E+00  0.00000000E+00  0.00000000E+00
  0.00000000E+00  0.00000000E+00  0.00000000E+00
