C N O H                                 
   1.00000000000000     
    40.0000000000000000    0.0000000000000000    0.0000000000000000
     0.0000000000000000   40.0000000000000000    0.0000000000000000
     0.0000000000000000    0.0000000000000000   40.0000000000000000
   C    N    O    H 
     7     1     1     9
Selective dynamics
Direct
  0.5454775038711170  0.5241814469159167  0.4998735936894870   T   T   T
  0.5165744932779699  0.5429457146152893  0.5007172644342045   T   T   T
  0.4851210293571985  0.5273345908629532  0.5009455804613520   T   T   T
  0.4827237968559299  0.4916571266305534  0.5006542703520183   T   T   T
  0.5114520046573868  0.4722636020895000  0.4998781013924878   T   T   T
  0.5430769250367909  0.4881455350502952  0.4992808357224470   T   T   T
  0.4223822939163867  0.4939448258680024  0.5008957194010417   T   T   T
  0.5712688630514061  0.4702402761243059  0.4979649317235185   T   T   T
  0.4533014336353201  0.4751553726415966  0.5011037280658269   T   T   T
  0.5708057629588053  0.4447989492959141  0.4972083871955405   T   T   T
  0.5940254357873418  0.4816184325479048  0.4973474987434358   T   T   T
  0.5095816012947390  0.4450989556754072  0.4995708457783999   T   T   T
  0.4026398880280260  0.4750437273728049  0.5008320390664550   T   T   T
  0.4205919000647214  0.5093805360065676  0.4782657338689915   T   T   T
  0.4202971187310323  0.5095380403884245  0.5233950049867286   T   T   T
  0.4626582869232210  0.5426577799293898  0.5013299224285526   T   T   T
  0.5179516381494838  0.5701286687962772  0.5011371909833678   T   T   T
  0.5700710244031278  0.5358654191888647  0.4995983517061539   T   T   T
 
  0.00000000E+00  0.00000000E+00  0.00000000E+00
  0.00000000E+00  0.00000000E+00  0.00000000E+00
  0.00000000E+00  0.00000000E+00  0.00000000E+00
  0.00000000E+00  0.00000000E+00  0.00000000E+00
  0.00000000E+00  0.00000000E+00  0.00000000E+00
  0.00000000E+00  0.00000000E+00  0.00000000E+00
  0.00000000E+00  0.00000000E+00  0.00000000E+00
  0.00000000E+00  0.00000000E+00  0.00000000E+00
  0.00000000E+00  0.00000000E+00  0.00000000E+00
  0.00000000E+00  0.00000000E+00  0.00000000E+00
  0.00000000E+00  0.00000000E+00  0.00000000E+00
  0.00000000E+00  0.00000000E+00  0.00000000E+00
  0.00000000E+00  0.00000000E+00  0.00000000E+00
  0.00000000E+00  0.00000000E+00  0.00000000E+00
  0.00000000E+00  0.00000000E+00  0.00000000E+00
  0.00000000E+00  0.00000000E+00  0.00000000E+00
  0.00000000E+00  0.00000000E+00  0.00000000E+00
  0.00000000E+00  0.00000000E+00  0.00000000E+00
