C N O H                                 
   1.00000000000000     
    40.0000000000000000    0.0000000000000000    0.0000000000000000
     0.0000000000000000   40.0000000000000000    0.0000000000000000
     0.0000000000000000    0.0000000000000000   40.0000000000000000
   C    N    O    H 
    10     1     1    17
Selective dynamics
Direct
  0.4704932022035351  0.4688725822342690  0.5004417561500674   T   T   T
  0.4904453964271696  0.4999467367172699  0.5083249365335405   T   T   T
  0.4747364407484937  0.5311675043936361  0.5085506320388262   T   T   T
  0.4392896103043640  0.5364359643014680  0.4992069672371642   T   T   T
  0.4221398133240868  0.5057678904549263  0.4842109633580378   T   T   T
  0.4326894984552823  0.4744616244594155  0.5032763310096513   T   T   T
  0.5461991652719576  0.5243566125162857  0.5231901720015912   T   T   T
  0.5704227520956664  0.5297792754425572  0.4936875057490724   T   T   T
  0.5667458340450722  0.4730937707831231  0.4792261685436401   T   T   T
  0.5424133459762785  0.4661971574148041  0.5085152777268860   T   T   T
  0.5235379475719739  0.4967910915178777  0.5151394208602937   T   T   T
  0.5885618285280856  0.4999822558040634  0.4869645747214051   T   T   T
  0.4257233932816717  0.4768810234285255  0.5298110990124911   T   T   T
  0.4197855886983604  0.4522163327687281  0.4937034085945484   T   T   T
  0.4291273968745983  0.5032893606997462  0.4576875176418724   T   T   T
  0.3949171987603322  0.5090392909544050  0.4849472610443186   T   T   T
  0.4260048412564714  0.5448517222658964  0.5220682933961385   T   T   T
  0.4378832121400151  0.5583684627202601  0.4825246385124871   T   T   T
  0.4886701469152541  0.5534372175562154  0.5156881890125291   T   T   T
  0.5326877462921757  0.5473532673945058  0.5289010536059706   T   T   T
  0.5887071391594176  0.5490937912845197  0.5002969549932601   T   T   T
  0.5561810781443342  0.5379382706092102  0.4714292306061196   T   T   T
  0.5521616924848800  0.4784893195428168  0.4563650458460700   T   T   T
  0.5568147365181915  0.4597736136635220  0.5310056997846004   T   T   T
  0.5259200717630037  0.4454152969281111  0.5021423735183959   T   T   T
  0.5823248207391103  0.4509428860295870  0.4750128436471428   T   T   T
  0.5605651149816211  0.5169604044450438  0.5454077792722103   T   T   T
  0.4767250016171474  0.4604913616193258  0.4749045151933800   T   T   T
  0.4781279854214304  0.4486069120498968  0.5173723903883243   T   T   T
 
  0.00000000E+00  0.00000000E+00  0.00000000E+00
  0.00000000E+00  0.00000000E+00  0.00000000E+00
  0.00000000E+00  0.00000000E+00  0.00000000E+00
  0.00000000E+00  0.00000000E+00  0.00000000E+00
  0.00000000E+00  0.00000000E+00  0.00000000E+00
  0.00000000E+00  0.00000000E+00  0.00000000E+00
  0.00000000E+00  0.00000000E+00  0.00000000E+00
  0.00000000E+00  0.00000000E+00  0.00000000E+00
  0.00000000E+00  0.00000000E+00  0.00000000E+00
  0.00000000E+00  0.00000000E+00  0.00000000E+00
  0.00000000E+00  0.00000000E+00  0.00000000E+00
  0.00000000E+00  0.00000000E+00  0.00000000E+00
  0.00000000E+00  0.00000000E+00  0.00000000E+00
  0.00000000E+00  0.00000000E+00  0.00000000E+00
  0.00000000E+00  0.00000000E+00  0.00000000E+00
  0.00000000E+00  0.00000000E+00  0.00000000E+00
  0.00000000E+00  0.00000000E+00  0.00000000E+00
  0.00000000E+00  0.00000000E+00  0.00000000E+00
  0.00000000E+00  0.00000000E+00  0.00000000E+00
  0.00000000E+00  0.00000000E+00  0.00000000E+00
  0.00000000E+00  0.00000000E+00  0.00000000E+00
  0.00000000E+00  0.00000000E+00  0.00000000E+00
  0.00000000E+00  0.00000000E+00  0.00000000E+00
  0.00000000E+00  0.00000000E+00  0.00000000E+00
  0.00000000E+00  0.00000000E+00  0.00000000E+00
  0.00000000E+00  0.00000000E+00  0.00000000E+00
  0.00000000E+00  0.00000000E+00  0.00000000E+00
  0.00000000E+00  0.00000000E+00  0.00000000E+00
  0.00000000E+00  0.00000000E+00  0.00000000E+00
