C H                                     
   1.00000000000000     
    40.0000000000000000    0.0000000000000000    0.0000000000000000
     0.0000000000000000   40.0000000000000000    0.0000000000000000
     0.0000000000000000    0.0000000000000000   40.0000000000000000
   C    H 
     6     6
Selective dynamics
Direct
  0.4694007832476910  0.5166612770698704  0.5000000000000000   T   T   T
  0.4991291384416437  0.5348311795626089  0.5000000000000000   T   T   T
  0.5297287096782085  0.5181687518186072  0.5000000000000000   T   T   T
  0.5305992167523088  0.4833387229301295  0.5000000000000000   T   T   T
  0.5008708615583566  0.4651688204373911  0.5000000000000000   T   T   T
  0.4702712903217916  0.4818312481813928  0.5000000000000000   T   T   T
  0.4471291551729962  0.4676846143817068  0.5000000000000000   T   T   T
  0.5015510970488127  0.4380552701690637  0.5000000000000000   T   T   T
  0.5544218654554864  0.4703722999080955  0.4999990000000025   T   T   T
  0.5528708448270109  0.5323153856182932  0.5000000000000000   T   T   T
  0.4984489029511943  0.5619447298309364  0.5000000000000000   T   T   T
  0.4455781345445135  0.5296277000919117  0.5000000000000000   T   T   T
 
  0.00000000E+00  0.00000000E+00  0.00000000E+00
  0.00000000E+00  0.00000000E+00  0.00000000E+00
  0.00000000E+00  0.00000000E+00  0.00000000E+00
  0.00000000E+00  0.00000000E+00  0.00000000E+00
  0.00000000E+00  0.00000000E+00  0.00000000E+00
  0.00000000E+00  0.00000000E+00  0.00000000E+00
  0.00000000E+00  0.00000000E+00  0.00000000E+00
  0.00000000E+00  0.00000000E+00  0.00000000E+00
  0.00000000E+00  0.00000000E+00  0.00000000E+00
  0.00000000E+00  0.00000000E+00  0.00000000E+00
  0.00000000E+00  0.00000000E+00  0.00000000E+00
  0.00000000E+00  0.00000000E+00  0.00000000E+00
