C Cl O H                                
   1.00000000000000     
    40.0000000000000000    0.0000000000000000    0.0000000000000000
     0.0000000000000000   40.0000000000000000    0.0000000000000000
     0.0000000000000000    0.0000000000000000   40.0000000000000000
   C    Cl   O    H 
     7     1     1     5
Selective dynamics
Direct
  0.4968293209363862  0.4689176321890969  0.4999780771917234   T   T   T
  0.4632419263048840  0.4764909259922037  0.4999796648898267   T   T   T
  0.4520299066595039  0.5096703059861916  0.4999932811064804   T   T   T
  0.4759582840730980  0.5352730512855938  0.5000150800002100   T   T   T
  0.5097100488433810  0.5283459208247349  0.5000168642728769   T   T   T
  0.5216099949371641  0.4947410850361900  0.4999996298410107   T   T   T
  0.5554740674359802  0.4849397066801814  0.5000052540651519   T   T   T
  0.5857522109281392  0.5202954939798986  0.5000416030508372   T   T   T
  0.5682394795731354  0.4567430687710483  0.4999892706930877   T   T   T
  0.5275592394264738  0.5486828101302906  0.5000284491905519   T   T   T
  0.4678915335167447  0.5611852656141569  0.5000247678245994   T   T   T
  0.4255570167523802  0.5154020847266696  0.4999924955484573   T   T   T
  0.4451776794611699  0.4562356897808639  0.4999661752118613   T   T   T
  0.5049682911515483  0.4430779590028701  0.4999693871133181   T   T   T
 
  0.00000000E+00  0.00000000E+00  0.00000000E+00
  0.00000000E+00  0.00000000E+00  0.00000000E+00
  0.00000000E+00  0.00000000E+00  0.00000000E+00
  0.00000000E+00  0.00000000E+00  0.00000000E+00
  0.00000000E+00  0.00000000E+00  0.00000000E+00
  0.00000000E+00  0.00000000E+00  0.00000000E+00
  0.00000000E+00  0.00000000E+00  0.00000000E+00
  0.00000000E+00  0.00000000E+00  0.00000000E+00
  0.00000000E+00  0.00000000E+00  0.00000000E+00
  0.00000000E+00  0.00000000E+00  0.00000000E+00
  0.00000000E+00  0.00000000E+00  0.00000000E+00
  0.00000000E+00  0.00000000E+00  0.00000000E+00
  0.00000000E+00  0.00000000E+00  0.00000000E+00
  0.00000000E+00  0.00000000E+00  0.00000000E+00
