C O H                                   
   1.00000000000000     
    40.0000000000000000    0.0000000000000000    0.0000000000000000
     0.0000000000000000   40.0000000000000000    0.0000000000000000
     0.0000000000000000    0.0000000000000000   40.0000000000000000
   C    O    H 
    10     2    10
Selective dynamics
Direct
  0.4935280226808015  0.4573170421561694  0.5020291552332791   T   T   T
  0.4593125267509015  0.4539239076454762  0.5004689308691260   T   T   T
  0.4415041146192729  0.4836498822926678  0.4985319424107512   T   T   T
  0.4573829489998636  0.5153669882052503  0.4983545451039210   T   T   T
  0.4912269024297533  0.5189997168046407  0.4999310579537541   T   T   T
  0.5101751775081482  0.4891441943708926  0.5016699535487398   T   T   T
  0.5458278525820657  0.4885459977901784  0.5027548576551933   T   T   T
  0.5664307253805452  0.5157095565203641  0.5020243590213379   T   T   T
  0.6032070107928021  0.5137133933426684  0.5024810711505895   T   T   T
  0.4019324798881473  0.5230226576745800  0.4948801858380636   T   T   T
  0.4337779388113540  0.5393590308302563  0.4964310698367101   T   T   T
  0.4085244018389695  0.4874916155919594  0.4966370861649431   T   T   T
  0.6123328137424984  0.4880924412347236  0.5033216321168533   T   T   T
  0.6134780582489193  0.5262938461895105  0.4804219562846414   T   T   T
  0.6131047980339177  0.5275921633319298  0.5239227888569165   T   T   T
  0.5557393245905081  0.5406427171718537  0.5009078668674986   T   T   T
  0.5572972344920666  0.4639574834714745  0.5039506439160847   T   T   T
  0.5025950824903652  0.5434982352979882  0.4997060635300003   T   T   T
  0.3899137299460309  0.5284792668661025  0.4710545106804213   T   T   T
  0.3868046017773142  0.5301724386222967  0.5163593540988792   T   T   T
  0.4469461445893338  0.4299005641466580  0.5006489239234473   T   T   T
  0.5089591098063828  0.4351258604423757  0.5035110449388585   T   T   T
 
  0.00000000E+00  0.00000000E+00  0.00000000E+00
  0.00000000E+00  0.00000000E+00  0.00000000E+00
  0.00000000E+00  0.00000000E+00  0.00000000E+00
  0.00000000E+00  0.00000000E+00  0.00000000E+00
  0.00000000E+00  0.00000000E+00  0.00000000E+00
  0.00000000E+00  0.00000000E+00  0.00000000E+00
  0.00000000E+00  0.00000000E+00  0.00000000E+00
  0.00000000E+00  0.00000000E+00  0.00000000E+00
  0.00000000E+00  0.00000000E+00  0.00000000E+00
  0.00000000E+00  0.00000000E+00  0.00000000E+00
  0.00000000E+00  0.00000000E+00  0.00000000E+00
  0.00000000E+00  0.00000000E+00  0.00000000E+00
  0.00000000E+00  0.00000000E+00  0.00000000E+00
  0.00000000E+00  0.00000000E+00  0.00000000E+00
  0.00000000E+00  0.00000000E+00  0.00000000E+00
  0.00000000E+00  0.00000000E+00  0.00000000E+00
  0.00000000E+00  0.00000000E+00  0.00000000E+00
  0.00000000E+00  0.00000000E+00  0.00000000E+00
  0.00000000E+00  0.00000000E+00  0.00000000E+00
  0.00000000E+00  0.00000000E+00  0.00000000E+00
  0.00000000E+00  0.00000000E+00  0.00000000E+00
  0.00000000E+00  0.00000000E+00  0.00000000E+00
