C H                                     
   1.00000000000000     
    40.0000000000000000    0.0000000000000000    0.0000000000000000
     0.0000000000000000   40.0000000000000000    0.0000000000000000
     0.0000000000000000    0.0000000000000000   40.0000000000000000
   C    H 
     8    10
Selective dynamics
Direct
  0.4445889461066059  0.4825291250289681  0.5000008961468367   T   T   T
  0.4750175600887729  0.4652989288742262  0.5000003704904188   T   T   T
  0.5056836125351012  0.4823048900563123  0.4999997848332214   T   T   T
  0.5381055592113171  0.4631566372288631  0.4999986676494927   T   T   T
  0.5056836125351012  0.5176951099436877  0.5000002151667786   T   T   T
  0.5381055592113171  0.5368423627711394  0.5000003323505098   T   T   T
  0.4750175600887729  0.5347010711257738  0.5000006295095787   T   T   T
  0.4445889461066059  0.5174708749710319  0.5000011038531582   T   T   T
  0.5534155279834465  0.4693056850139570  0.5220491091372566   T   T   T
  0.5336053067481501  0.4360869404821557  0.5000008832454910   T   T   T
  0.5534117426890859  0.4693025575595584  0.4779449166047556   T   T   T
  0.5534145279834490  0.5306943149860430  0.4779488908627414   T   T   T
  0.5336053067481501  0.5639130595178443  0.4999981167545045   T   T   T
  0.5534127426890905  0.5306974424404416  0.5220540833952469   T   T   T
  0.4210741582968964  0.5313041659002238  0.5000011064229852   T   T   T
  0.4750985863406072  0.5620265777321052  0.5000010192684741   T   T   T
  0.4750985863406072  0.4379734222678948  0.4999999807315234   T   T   T
  0.4210741582968964  0.4686958340997762  0.5000008935770097   T   T   T
 
  0.00000000E+00  0.00000000E+00  0.00000000E+00
  0.00000000E+00  0.00000000E+00  0.00000000E+00
  0.00000000E+00  0.00000000E+00  0.00000000E+00
  0.00000000E+00  0.00000000E+00  0.00000000E+00
  0.00000000E+00  0.00000000E+00  0.00000000E+00
  0.00000000E+00  0.00000000E+00  0.00000000E+00
  0.00000000E+00  0.00000000E+00  0.00000000E+00
  0.00000000E+00  0.00000000E+00  0.00000000E+00
  0.00000000E+00  0.00000000E+00  0.00000000E+00
  0.00000000E+00  0.00000000E+00  0.00000000E+00
  0.00000000E+00  0.00000000E+00  0.00000000E+00
  0.00000000E+00  0.00000000E+00  0.00000000E+00
  0.00000000E+00  0.00000000E+00  0.00000000E+00
  0.00000000E+00  0.00000000E+00  0.00000000E+00
  0.00000000E+00  0.00000000E+00  0.00000000E+00
  0.00000000E+00  0.00000000E+00  0.00000000E+00
  0.00000000E+00  0.00000000E+00  0.00000000E+00
  0.00000000E+00  0.00000000E+00  0.00000000E+00
