C N H                                   
   1.00000000000000     
    40.0000000000000000    0.0000000000000000    0.0000000000000000
     0.0000000000000000   40.0000000000000000    0.0000000000000000
     0.0000000000000000    0.0000000000000000   40.0000000000000000
   C    N    H 
    10     1    17
Selective dynamics
Direct
  0.5272212663718703  0.4684119983909787  0.5015022459165468   T   T   T
  0.5092880425511663  0.5013523838233341  0.5011929646114990   T   T   T
  0.5269104566411474  0.5316249789972074  0.5006695497435174   T   T   T
  0.5637882342756710  0.5333619420379488  0.4991657785137637   T   T   T
  0.5803072318601211  0.5000510149673416  0.4906116249394931   T   T   T
  0.5641471390610544  0.4719667444036124  0.5105926862092893   T   T   T
  0.4546513427875207  0.5315747142236652  0.5018793681212430   T   T   T
  0.4194918375943477  0.5176839691362204  0.5067430429155670   T   T   T
  0.4210251609178371  0.4836852554780161  0.4893388375158613   T   T   T
  0.4555713733664563  0.4708152455392787  0.4988338885315967   T   T   T
  0.4760208686732686  0.5013822207941134  0.5009727107045928   T   T   T
  0.5766692796159790  0.4481870582833422  0.5059757913665037   T   T   T
  0.5664831775734736  0.4771623105247578  0.5373657073325920   T   T   T
  0.6070419132566229  0.5014796433149680  0.4957612346133065   T   T   T
  0.5775803833124874  0.4950907437460737  0.4638235254654415   T   T   T
  0.5709950170618667  0.5532371244321279  0.4817643447407300   T   T   T
  0.5725488228144635  0.5423158258773241  0.5237211198896856   T   T   T
  0.5131410835582513  0.5549197244581237  0.5012689216018765   T   T   T
  0.4665320804024002  0.4535162623777718  0.4808707581496783   T   T   T
  0.4555132909687733  0.4587306123359495  0.5234290105167864   T   T   T
  0.4013888231397254  0.4666212870981211  0.4972974820253431   T   T   T
  0.4193418826062849  0.4866434125745501  0.4622401582315964   T   T   T
  0.4006639708069674  0.5342822451771663  0.4962499302526945   T   T   T
  0.4142526987456422  0.5145805421921369  0.5333590462566011   T   T   T
  0.4628360583448705  0.5480571253724534  0.5219572076727638   T   T   T
  0.4572592474372260  0.5446977761283911  0.4780255597989514   T   T   T
  0.5145765028046327  0.4514463874749090  0.5187892850933242   T   T   T
  0.5247528134498439  0.4571234508401044  0.4765992192692024   T   T   T
 
  0.00000000E+00  0.00000000E+00  0.00000000E+00
  0.00000000E+00  0.00000000E+00  0.00000000E+00
  0.00000000E+00  0.00000000E+00  0.00000000E+00
  0.00000000E+00  0.00000000E+00  0.00000000E+00
  0.00000000E+00  0.00000000E+00  0.00000000E+00
  0.00000000E+00  0.00000000E+00  0.00000000E+00
  0.00000000E+00  0.00000000E+00  0.00000000E+00
  0.00000000E+00  0.00000000E+00  0.00000000E+00
  0.00000000E+00  0.00000000E+00  0.00000000E+00
  0.00000000E+00  0.00000000E+00  0.00000000E+00
  0.00000000E+00  0.00000000E+00  0.00000000E+00
  0.00000000E+00  0.00000000E+00  0.00000000E+00
  0.00000000E+00  0.00000000E+00  0.00000000E+00
  0.00000000E+00  0.00000000E+00  0.00000000E+00
  0.00000000E+00  0.00000000E+00  0.00000000E+00
  0.00000000E+00  0.00000000E+00  0.00000000E+00
  0.00000000E+00  0.00000000E+00  0.00000000E+00
  0.00000000E+00  0.00000000E+00  0.00000000E+00
  0.00000000E+00  0.00000000E+00  0.00000000E+00
  0.00000000E+00  0.00000000E+00  0.00000000E+00
  0.00000000E+00  0.00000000E+00  0.00000000E+00
  0.00000000E+00  0.00000000E+00  0.00000000E+00
  0.00000000E+00  0.00000000E+00  0.00000000E+00
  0.00000000E+00  0.00000000E+00  0.00000000E+00
  0.00000000E+00  0.00000000E+00  0.00000000E+00
  0.00000000E+00  0.00000000E+00  0.00000000E+00
  0.00000000E+00  0.00000000E+00  0.00000000E+00
  0.00000000E+00  0.00000000E+00  0.00000000E+00
