!r2SCANh opt aug-cc-pVTZ d3 TightSCF SlowConv RIJCOSX defgrid2

%pal
nprocs 8
end

%scf
MaxIter 1500
end

%maxcore 3500

!CPCM
%cpcm smd true
SMDsolvent "MeCN"
surfacetype gepol_ses
rsolv 2.19
end 

* xyz 0 1
C          -0.22997754219743     -1.20609091856311     -0.00046087004095
C           1.16128384069195     -1.20031253591911      0.00041394587123
C           1.87254503831811     -0.00003037040882      0.00072012391754
C           1.16131377140118      1.20026930808148      0.00041360790641
C          -0.22994707632405      1.20608173416170     -0.00046177829750
C          -0.95218511536342      0.00000427823419     -0.00003761551285
N          -2.33340895991450      0.00002157595282      0.04653779431621
H          -2.79855452143895      0.84821355690402     -0.25483389378867
H          -2.79857532928795     -0.84816111010491     -0.25482834496791
H          -0.77344381556999      2.15676174884881      0.00298430668171
H           1.69817818740019      2.15419904894576     -0.00079679497611
H           2.96571339060225     -0.00004426352233      0.00028554339021
H           1.69812535441562     -2.15425546581862     -0.00079688995407
H          -0.77349762273302     -2.15675758679187      0.00298456545474
*
