C O H                                   
   1.00000000000000     
    40.0000000000000000    0.0000000000000000    0.0000000000000000
     0.0000000000000000   40.0000000000000000    0.0000000000000000
     0.0000000000000000    0.0000000000000000   40.0000000000000000
   C    O    H 
     9     1    10
Selective dynamics
Direct
  0.5067729223359096  0.5240691450793796  0.4997905006111515   T   T   T
  0.4720291213546685  0.5244479113146852  0.4996540596455050   T   T   T
  0.4536792903825558  0.4947037959053559  0.4997078794635899   T   T   T
  0.4712483938448326  0.4643822955653188  0.4997944806266159   T   T   T
  0.5058504640505151  0.4638592842830783  0.4999315781753798   T   T   T
  0.5242118593992064  0.4937119376075000  0.4999480963911646   T   T   T
  0.5613097506144482  0.4920565733527403  0.5000206090804089   T   T   T
  0.5809327872263707  0.5241273721738394  0.5000723907274152   T   T   T
  0.4162048470809817  0.4950107994249442  0.5001994294899831   T   T   T
  0.5757989849568395  0.4648534000769352  0.5000454344525382   T   T   T
  0.6075350477818577  0.5184748054434399  0.5002000633894110   T   T   T
  0.5746308829799315  0.5391902731050874  0.5219731696976055   T   T   T
  0.5748440989415616  0.5391265134027945  0.4780662432054223   T   T   T
  0.5193076202052602  0.4403340871665487  0.4999178857559821   T   T   T
  0.4573809626514115  0.4410374695206786  0.4996530842591451   T   T   T
  0.4070205950556327  0.4918219218679187  0.5257937571563841   T   T   T
  0.4062349337427627  0.5185538916430988  0.4907452054024976   T   T   T
  0.4059814575375559  0.4744791082003216  0.4854080809140167   T   T   T
  0.4588527981237595  0.5481591525978607  0.4994148922212583   T   T   T
  0.5201731817339458  0.5476012622684714  0.4996651593345129   T   T   T
 
  0.00000000E+00  0.00000000E+00  0.00000000E+00
  0.00000000E+00  0.00000000E+00  0.00000000E+00
  0.00000000E+00  0.00000000E+00  0.00000000E+00
  0.00000000E+00  0.00000000E+00  0.00000000E+00
  0.00000000E+00  0.00000000E+00  0.00000000E+00
  0.00000000E+00  0.00000000E+00  0.00000000E+00
  0.00000000E+00  0.00000000E+00  0.00000000E+00
  0.00000000E+00  0.00000000E+00  0.00000000E+00
  0.00000000E+00  0.00000000E+00  0.00000000E+00
  0.00000000E+00  0.00000000E+00  0.00000000E+00
  0.00000000E+00  0.00000000E+00  0.00000000E+00
  0.00000000E+00  0.00000000E+00  0.00000000E+00
  0.00000000E+00  0.00000000E+00  0.00000000E+00
  0.00000000E+00  0.00000000E+00  0.00000000E+00
  0.00000000E+00  0.00000000E+00  0.00000000E+00
  0.00000000E+00  0.00000000E+00  0.00000000E+00
  0.00000000E+00  0.00000000E+00  0.00000000E+00
  0.00000000E+00  0.00000000E+00  0.00000000E+00
  0.00000000E+00  0.00000000E+00  0.00000000E+00
  0.00000000E+00  0.00000000E+00  0.00000000E+00
