!PBE0 aug-cc-pVTZ d3 TightSCF SlowConv RIJCOSX defgrid2
 
%pal
nprocs 4
end
 
%scf
MaxIter 1500
end
 
%maxcore 3000
 
!CPCM
%cpcm smd true
SMDsolvent "MeCN"
surfacetype gepol_ses
rsolv 2.19
end 
 
* xyz 1 2
C          -1.21410268013558      0.66079671488085      0.00044125101463
C          -0.00479873951211      1.42348649358076      0.00008291249140
C           1.19917788477091      0.76805500599948     -0.00093245598873
C           1.21410525376750     -0.66078759041144     -0.00041186823336
C           0.00483277696024     -1.42348058095615     -0.00006380880582
C          -1.19915583251644     -0.76807297563841      0.00095026344814
H          -2.14500237789104     -1.31691197560262      0.00198921433109
H           0.05803237074867     -2.51570929713129     -0.00010038106333
H           2.17564601802106     -1.18573947417440      0.00063492612648
H           2.14497947433067      1.31689182680587     -0.00197612697820
H          -0.05801300840356      2.51575704823161      0.00011149719674
H          -2.17570214014031      1.18578190441576     -0.00060722353904
*
