C H                                     
   1.00000000000000     
    40.0000000000000000    0.0000000000000000    0.0000000000000000
     0.0000000000000000   40.0000000000000000    0.0000000000000000
     0.0000000000000000    0.0000000000000000   40.0000000000000000
   C    H 
    12    14
Selective dynamics
Direct
  0.5197299277030843  0.4861703963221408  0.4985342837200127   T   T   T
  0.5465389388787377  0.4642895671167405  0.5057895149300996   T   T   T
  0.5788989256967186  0.4757819258424804  0.5063839828151989   T   T   T
  0.5860336666619413  0.5097732293313673  0.4998886504932815   T   T   T
  0.5605639277461226  0.5319536099176245  0.4935836551117496   T   T   T
  0.5269047011885460  0.5214485159008598  0.4945677466392691   T   T   T
  0.5015997052718929  0.5466113339775046  0.4932625787732666   T   T   T
  0.4703814305384326  0.5446739772425722  0.5068503974356090   T   T   T
  0.4450417879369290  0.5713394756255147  0.5042039126256663   T   T   T
  0.4869574128972411  0.4735992924029803  0.4919035551457318   T   T   T
  0.4747925890379885  0.4437056253253870  0.5033200026317673   T   T   T
  0.4407930976881267  0.4314196417355890  0.4963219483893220   T   T   T
  0.4226397319348110  0.5614212515765834  0.4918787747428504   T   T   T
  0.4367837434791034  0.5790776379069876  0.5291423042407867   T   T   T
  0.4540274557432750  0.5929460475534434  0.4902753750420358   T   T   T
  0.4636465545487025  0.5229437157236378  0.5216765476906597   T   T   T
  0.5092402533094524  0.5704058039625408  0.4825336054619219   T   T   T
  0.5658082555017967  0.5582026973885887  0.4894658204202172   T   T   T
  0.6116945679140136  0.5183869276459588  0.5002717025719442   T   T   T
  0.5992423117678826  0.4584855219178583  0.5108146302157864   T   T   T
  0.5416898239687696  0.4378164763539265  0.5085956927165318   T   T   T
  0.4267277313400183  0.4481095417975100  0.4800506638446209   T   T   T
  0.4421427502778011  0.4064707522117633  0.4850270480104416   T   T   T
  0.4271527434707088  0.4278939957279599  0.5198452580563665   T   T   T
  0.4903308727419630  0.4281806893572592  0.5192753916461483   T   T   T
  0.4706380927559464  0.4888913501352302  0.4765359566286884   T   T   T
 
  0.00000000E+00  0.00000000E+00  0.00000000E+00
  0.00000000E+00  0.00000000E+00  0.00000000E+00
  0.00000000E+00  0.00000000E+00  0.00000000E+00
  0.00000000E+00  0.00000000E+00  0.00000000E+00
  0.00000000E+00  0.00000000E+00  0.00000000E+00
  0.00000000E+00  0.00000000E+00  0.00000000E+00
  0.00000000E+00  0.00000000E+00  0.00000000E+00
  0.00000000E+00  0.00000000E+00  0.00000000E+00
  0.00000000E+00  0.00000000E+00  0.00000000E+00
  0.00000000E+00  0.00000000E+00  0.00000000E+00
  0.00000000E+00  0.00000000E+00  0.00000000E+00
  0.00000000E+00  0.00000000E+00  0.00000000E+00
  0.00000000E+00  0.00000000E+00  0.00000000E+00
  0.00000000E+00  0.00000000E+00  0.00000000E+00
  0.00000000E+00  0.00000000E+00  0.00000000E+00
  0.00000000E+00  0.00000000E+00  0.00000000E+00
  0.00000000E+00  0.00000000E+00  0.00000000E+00
  0.00000000E+00  0.00000000E+00  0.00000000E+00
  0.00000000E+00  0.00000000E+00  0.00000000E+00
  0.00000000E+00  0.00000000E+00  0.00000000E+00
  0.00000000E+00  0.00000000E+00  0.00000000E+00
  0.00000000E+00  0.00000000E+00  0.00000000E+00
  0.00000000E+00  0.00000000E+00  0.00000000E+00
  0.00000000E+00  0.00000000E+00  0.00000000E+00
  0.00000000E+00  0.00000000E+00  0.00000000E+00
  0.00000000E+00  0.00000000E+00  0.00000000E+00
