C H                                     
   1.00000000000000     
    40.0000000000000000    0.0000000000000000    0.0000000000000000
     0.0000000000000000   40.0000000000000000    0.0000000000000000
     0.0000000000000000    0.0000000000000000   40.0000000000000000
   C    H 
    12    14
Selective dynamics
Direct
  0.5199528083318086  0.4860759441462648  0.4984186188675750   T   T   T
  0.5468314134414598  0.4641967157729425  0.5056328271341570   T   T   T
  0.5793604347012504  0.4757259339775715  0.5063690956702374   T   T   T
  0.5865069192451386  0.5098210762872100  0.4999474826429875   T   T   T
  0.5608721176518827  0.5320722457829916  0.4936360649753766   T   T   T
  0.5271083457655692  0.5215149844133862  0.4945606874173194   T   T   T
  0.5016380301091630  0.5467401914667960  0.4932979333563168   T   T   T
  0.4702560960041424  0.5449522068665829  0.5069323144059723   T   T   T
  0.4447920198244617  0.5715667266267772  0.5042217902691988   T   T   T
  0.4869831792519008  0.4733775899204602  0.4918284402646051   T   T   T
  0.4745255326640958  0.4435657352682014  0.5033652862516647   T   T   T
  0.4404866579686271  0.4312333284898244  0.4963712176628619   T   T   T
  0.4222452021970184  0.5616250152270865  0.4917894988810829   T   T   T
  0.4362653075283802  0.5793299611058629  0.5292471937576408   T   T   T
  0.4536384222538246  0.5934149707950382  0.4902592916597399   T   T   T
  0.4635403252522394  0.5231100254488865  0.5219488455313623   T   T   T
  0.5092072853885057  0.5706593669209354  0.4823566902912546   T   T   T
  0.5662486109214342  0.5584807505387772  0.4895581368267443   T   T   T
  0.6123144091234423  0.5185108015238100  0.5003920559645181   T   T   T
  0.5997949349810412  0.4582913368273012  0.5108787002090622   T   T   T
  0.5420203774111272  0.4375362826674447  0.5083854873867679   T   T   T
  0.4262075187612027  0.4478863553209749  0.4799623909277955   T   T   T
  0.4417543183033956  0.4061078721733082  0.4850430489175039   T   T   T
  0.4266509888722680  0.4275963957617748  0.5199558555422499   T   T   T
  0.4900970654572703  0.4279461770730890  0.5195371406215870   T   T   T
  0.4707026785893476  0.4886610095967256  0.4761029045643994   T   T   T
 
  0.00000000E+00  0.00000000E+00  0.00000000E+00
  0.00000000E+00  0.00000000E+00  0.00000000E+00
  0.00000000E+00  0.00000000E+00  0.00000000E+00
  0.00000000E+00  0.00000000E+00  0.00000000E+00
  0.00000000E+00  0.00000000E+00  0.00000000E+00
  0.00000000E+00  0.00000000E+00  0.00000000E+00
  0.00000000E+00  0.00000000E+00  0.00000000E+00
  0.00000000E+00  0.00000000E+00  0.00000000E+00
  0.00000000E+00  0.00000000E+00  0.00000000E+00
  0.00000000E+00  0.00000000E+00  0.00000000E+00
  0.00000000E+00  0.00000000E+00  0.00000000E+00
  0.00000000E+00  0.00000000E+00  0.00000000E+00
  0.00000000E+00  0.00000000E+00  0.00000000E+00
  0.00000000E+00  0.00000000E+00  0.00000000E+00
  0.00000000E+00  0.00000000E+00  0.00000000E+00
  0.00000000E+00  0.00000000E+00  0.00000000E+00
  0.00000000E+00  0.00000000E+00  0.00000000E+00
  0.00000000E+00  0.00000000E+00  0.00000000E+00
  0.00000000E+00  0.00000000E+00  0.00000000E+00
  0.00000000E+00  0.00000000E+00  0.00000000E+00
  0.00000000E+00  0.00000000E+00  0.00000000E+00
  0.00000000E+00  0.00000000E+00  0.00000000E+00
  0.00000000E+00  0.00000000E+00  0.00000000E+00
  0.00000000E+00  0.00000000E+00  0.00000000E+00
  0.00000000E+00  0.00000000E+00  0.00000000E+00
  0.00000000E+00  0.00000000E+00  0.00000000E+00
