C N H                                   
   1.00000000000000     
    40.0000000000000000    0.0000000000000000    0.0000000000000000
     0.0000000000000000   40.0000000000000000    0.0000000000000000
     0.0000000000000000    0.0000000000000000   40.0000000000000000
   C    N    H 
     4     1     9
Selective dynamics
Direct
  0.5146797079018582  0.4710621720066124  0.4950972685521425   T   T   T
  0.5146838246277604  0.5289449482824691  0.4951318580063087   T   T   T
  0.4776738670607116  0.5194154589565693  0.5016883393988498   T   T   T
  0.4776864079870251  0.4805755886382550  0.5017361196217690   T   T   T
  0.5351869433345259  0.4999958241408163  0.5052784338655338   T   T   T
  0.5368601446631580  0.4999780993623573  0.5308263490390884   T   T   T
  0.4694866907346066  0.4708706577066146  0.5260986856924944   T   T   T
  0.4608886015618189  0.4700630919853658  0.4827031788293257   T   T   T
  0.4693751578135192  0.5291823431565835  0.5259940444821142   T   T   T
  0.4609364235612129  0.5298627414124033  0.4825668497794403   T   T   T
  0.5185985874290877  0.5331074438941342  0.4681587680649009   T   T   T
  0.5226854116739889  0.5516384653127602  0.5083563979512763   T   T   T
  0.5185534468840874  0.4669649584828672  0.4681061403814883   T   T   T
  0.5227057847666371  0.4483412066621916  0.5082565663352775   T   T   T
 
  0.00000000E+00  0.00000000E+00  0.00000000E+00
  0.00000000E+00  0.00000000E+00  0.00000000E+00
  0.00000000E+00  0.00000000E+00  0.00000000E+00
  0.00000000E+00  0.00000000E+00  0.00000000E+00
  0.00000000E+00  0.00000000E+00  0.00000000E+00
  0.00000000E+00  0.00000000E+00  0.00000000E+00
  0.00000000E+00  0.00000000E+00  0.00000000E+00
  0.00000000E+00  0.00000000E+00  0.00000000E+00
  0.00000000E+00  0.00000000E+00  0.00000000E+00
  0.00000000E+00  0.00000000E+00  0.00000000E+00
  0.00000000E+00  0.00000000E+00  0.00000000E+00
  0.00000000E+00  0.00000000E+00  0.00000000E+00
  0.00000000E+00  0.00000000E+00  0.00000000E+00
  0.00000000E+00  0.00000000E+00  0.00000000E+00
