C N O H                                 
   1.00000000000000     
    40.0000000000000000    0.0000000000000000    0.0000000000000000
     0.0000000000000000   40.0000000000000000    0.0000000000000000
     0.0000000000000000    0.0000000000000000   40.0000000000000000
   C    N    O    H 
     8     1     3     7
Selective dynamics
Direct
  0.5011537759909217  0.4632984070785156  0.4999850960656628   T   T   T
  0.4666667020504351  0.4632937649758866  0.5000076990328309   T   T   T
  0.4489972064703546  0.4940755166634949  0.5000335628274146   T   T   T
  0.4671466337895486  0.5245443793993187  0.5000361785978641   T   T   T
  0.5017460465712960  0.5240515475612074  0.5000171838613666   T   T   T
  0.5198887186917349  0.4935049169055922  0.4999859195476060   T   T   T
  0.5564637532117851  0.4919880636998470  0.4999591108474643   T   T   T
  0.5762809718475314  0.5243490356648967  0.4999387720663865   T   T   T
  0.4139157246247527  0.4942759892528010  0.5000612938651479   T   T   T
  0.5717590689976841  0.4645535432190671  0.4999557601745240   T   T   T
  0.3982557606288031  0.5223901736402852  0.5000820119109374   T   T   T
  0.3979583271870215  0.4663184329523663  0.5000648263790614   T   T   T
  0.5704717115541760  0.5396144680339123  0.5220864860940093   T   T   T
  0.6030343237826669  0.5184613210624993  0.4998781401550051   T   T   T
  0.5703725257049852  0.5396671765496687  0.4778548600300712   T   T   T
  0.5150553292413130  0.5478499963665963  0.5000225961831748   T   T   T
  0.4534472190616552  0.5480526439845528  0.5000625169721857   T   T   T
  0.4525775438950554  0.4400162972515440  0.5000050595844218   T   T   T
  0.5148076566982819  0.4396983257379663  0.4999619258048607   T   T   T
 
  0.00000000E+00  0.00000000E+00  0.00000000E+00
  0.00000000E+00  0.00000000E+00  0.00000000E+00
  0.00000000E+00  0.00000000E+00  0.00000000E+00
  0.00000000E+00  0.00000000E+00  0.00000000E+00
  0.00000000E+00  0.00000000E+00  0.00000000E+00
  0.00000000E+00  0.00000000E+00  0.00000000E+00
  0.00000000E+00  0.00000000E+00  0.00000000E+00
  0.00000000E+00  0.00000000E+00  0.00000000E+00
  0.00000000E+00  0.00000000E+00  0.00000000E+00
  0.00000000E+00  0.00000000E+00  0.00000000E+00
  0.00000000E+00  0.00000000E+00  0.00000000E+00
  0.00000000E+00  0.00000000E+00  0.00000000E+00
  0.00000000E+00  0.00000000E+00  0.00000000E+00
  0.00000000E+00  0.00000000E+00  0.00000000E+00
  0.00000000E+00  0.00000000E+00  0.00000000E+00
  0.00000000E+00  0.00000000E+00  0.00000000E+00
  0.00000000E+00  0.00000000E+00  0.00000000E+00
  0.00000000E+00  0.00000000E+00  0.00000000E+00
  0.00000000E+00  0.00000000E+00  0.00000000E+00
