!PBE0 freq def2-SV(p) d3 TightSCF SlowConv RIJCOSX defgrid2

%pal
nprocs 12
end

%scf
MaxIter 1500
end

%maxcore 5000

!CPCM
%cpcm smd true
SMDsolvent "MeCN"
surfacetype gepol_ses
rsolv 2.19
end 

* xyz 1 2
C          -0.34269272007240      0.86358128076305      0.00017336463965
C          -1.61682535315041      0.29872839502655      0.00027232709439
C          -1.76327593859363     -1.12703101466610     -0.00043203320543
C          -0.63739624062987     -1.94374731288786      0.00111620988972
C           0.62986374006271     -1.38405792570357      0.00213756313565
C           0.79391349839777      0.04957860833415      0.00072389636180
C           2.08976014414085      0.65591595139458      0.00005496901668
C           3.28455770892394     -0.01412761183965      0.00022525601574
C           4.60076745433762      0.64527726054507     -0.00077468032163
H           5.18451864818007      0.31137970640641     -0.88129020721960
H           5.18570341848605      0.31039397000190      0.87854450588036
H           4.53060789304738      1.74415603857220     -0.00034643185848
H           3.29554337913767     -1.11034005964591      0.00095237040151
H           2.11082180685012      1.75173098037836     -0.00151820887124
H           1.50348120820588     -2.03756779578787      0.00405410721875
H          -0.75835956643810     -3.02923439713395      0.00153349784824
H          -2.75714027479589     -1.57827690416758     -0.00330335470885
O          -2.64361150722117      1.12313406836635      0.00109467154263
C          -3.97832988466489      0.63537335929446     -0.00009984939859
H          -4.62009577830610      1.52670584632966      0.00409523358771
H          -4.17808477704092      0.03503845739409      0.90300179254814
H          -4.17858979000069      0.04318965829035     -0.90842418301036
H          -0.24797446885595      1.95153344073531     -0.00055491658677
*
