C N O H                                 
   1.00000000000000     
    25.0000000000000000    0.0000000000000000    0.0000000000000000
     0.0000000000000000   25.0000000000000000    0.0000000000000000
     0.0000000000000000    0.0000000000000000   25.0000000000000000
   C    N    O    H 
     9     1     1    16
Selective dynamics
Direct
  0.5148082791333434  0.5258690089845042  0.4568101466450193   T   T   T
  0.5265387558593551  0.4686350418196995  0.4364252222300000   T   T   T
  0.5367861998628192  0.4296123690397705  0.4806103038736959   T   T   T
  0.5155993591730691  0.4359024394187544  0.5292195467952093   T   T   T
  0.4763377492324319  0.4791493707090683  0.5436002133296574   T   T   T
  0.5647484059805349  0.5501852593157565  0.4847437761578543   T   T   T
  0.4941679027968880  0.5625138356222450  0.4129486494357171   T   T   T
  0.4926873033271762  0.5093626739440219  0.5953098043709022   T   T   T
  0.4195129889885793  0.4557896389483269  0.5498431761519263   T   T   T
  0.4732374963170812  0.5213251750530338  0.5000273762664175   T   T   T
  0.4363616988333854  0.5526333669294858  0.5010199169975089   T   T   T
  0.5617467453972239  0.4723562421929816  0.4103063764021244   T   T   T
  0.4936384390148802  0.4547493771941949  0.4105009288876737   T   T   T
  0.5624473556380254  0.3953333025456911  0.4721720019798669   T   T   T
  0.5235265575576830  0.4076375632549645  0.5615119746201330   T   T   T
  0.5550699118668052  0.5886315056283121  0.5034874916438317   T   T   T
  0.5825397195497134  0.5230056420777235  0.5141021549300288   T   T   T
  0.5939644509518804  0.5570714421447713  0.4526747612430352   T   T   T
  0.4884085666820587  0.6035900588224885  0.4271662325022300   T   T   T
  0.4562756832178190  0.5477390167004953  0.3963739987487038   T   T   T
  0.5241463587892132  0.5630717732574283  0.3809221438179443   T   T   T
  0.4636396384489742  0.5409927232514106  0.6042687908312532   T   T   T
  0.5329715307484972  0.5263328655199296  0.5924036441557360   T   T   T
  0.4922390436787485  0.4798303183189160  0.6277569405387359   T   T   T
  0.3910165453674514  0.4866176933791119  0.5624683525540733   T   T   T
  0.4059957308969782  0.4372045548340461  0.5124603858174677   T   T   T
  0.4215855826893817  0.4248577410928743  0.5808646890732495   T   T   T
 
  0.00000000E+00  0.00000000E+00  0.00000000E+00
  0.00000000E+00  0.00000000E+00  0.00000000E+00
  0.00000000E+00  0.00000000E+00  0.00000000E+00
  0.00000000E+00  0.00000000E+00  0.00000000E+00
  0.00000000E+00  0.00000000E+00  0.00000000E+00
  0.00000000E+00  0.00000000E+00  0.00000000E+00
  0.00000000E+00  0.00000000E+00  0.00000000E+00
  0.00000000E+00  0.00000000E+00  0.00000000E+00
  0.00000000E+00  0.00000000E+00  0.00000000E+00
  0.00000000E+00  0.00000000E+00  0.00000000E+00
  0.00000000E+00  0.00000000E+00  0.00000000E+00
  0.00000000E+00  0.00000000E+00  0.00000000E+00
  0.00000000E+00  0.00000000E+00  0.00000000E+00
  0.00000000E+00  0.00000000E+00  0.00000000E+00
  0.00000000E+00  0.00000000E+00  0.00000000E+00
  0.00000000E+00  0.00000000E+00  0.00000000E+00
  0.00000000E+00  0.00000000E+00  0.00000000E+00
  0.00000000E+00  0.00000000E+00  0.00000000E+00
  0.00000000E+00  0.00000000E+00  0.00000000E+00
  0.00000000E+00  0.00000000E+00  0.00000000E+00
  0.00000000E+00  0.00000000E+00  0.00000000E+00
  0.00000000E+00  0.00000000E+00  0.00000000E+00
  0.00000000E+00  0.00000000E+00  0.00000000E+00
  0.00000000E+00  0.00000000E+00  0.00000000E+00
  0.00000000E+00  0.00000000E+00  0.00000000E+00
  0.00000000E+00  0.00000000E+00  0.00000000E+00
  0.00000000E+00  0.00000000E+00  0.00000000E+00
