C O H                                   
   1.00000000000000     
    40.0000000000000000    0.0000000000000000    0.0000000000000000
     0.0000000000000000   40.0000000000000000    0.0000000000000000
     0.0000000000000000    0.0000000000000000   40.0000000000000000
   C    O    H 
     8     1     6
Selective dynamics
Direct
  0.5174479065364535  0.4611545256135438  0.5000000000000000   T   T   T
  0.5477947381007642  0.4779780624885571  0.5000000000000000   T   T   T
  0.5492135309257286  0.5129663039643354  0.5000000000000000   T   T   T
  0.5204083363373802  0.5321920410710690  0.5000000000000000   T   T   T
  0.4895456898093356  0.5158292705231143  0.5000000000000000   T   T   T
  0.4890205227324275  0.4808210120113705  0.5000000000000000   T   T   T
  0.4369594825000512  0.4974702341192065  0.5000000000000000   T   T   T
  0.4550209038475952  0.5259559224623629  0.5000000000000000   T   T   T
  0.4568342822144876  0.4696077838515076  0.5000000000000000   T   T   T
  0.4451037117912215  0.5510270206486541  0.5000000000000000   T   T   T
  0.4104370809535060  0.4927111002411415  0.5000009999999975   T   T   T
  0.5218409962338691  0.5592413271533563  0.5000000000000000   T   T   T
  0.5734117842650422  0.5251607081955600  0.5000000000000000   T   T   T
  0.5708523656443781  0.4637581309214939  0.5000000000000000   T   T   T
  0.5161076681077693  0.4341255567347366  0.5000000000000000   T   T   T
 
  0.00000000E+00  0.00000000E+00  0.00000000E+00
  0.00000000E+00  0.00000000E+00  0.00000000E+00
  0.00000000E+00  0.00000000E+00  0.00000000E+00
  0.00000000E+00  0.00000000E+00  0.00000000E+00
  0.00000000E+00  0.00000000E+00  0.00000000E+00
  0.00000000E+00  0.00000000E+00  0.00000000E+00
  0.00000000E+00  0.00000000E+00  0.00000000E+00
  0.00000000E+00  0.00000000E+00  0.00000000E+00
  0.00000000E+00  0.00000000E+00  0.00000000E+00
  0.00000000E+00  0.00000000E+00  0.00000000E+00
  0.00000000E+00  0.00000000E+00  0.00000000E+00
  0.00000000E+00  0.00000000E+00  0.00000000E+00
  0.00000000E+00  0.00000000E+00  0.00000000E+00
  0.00000000E+00  0.00000000E+00  0.00000000E+00
  0.00000000E+00  0.00000000E+00  0.00000000E+00
