C N H                                   
   1.00000000000000     
    40.0000000000000000    0.0000000000000000    0.0000000000000000
     0.0000000000000000   40.0000000000000000    0.0000000000000000
     0.0000000000000000    0.0000000000000000   40.0000000000000000
   C    N    H 
     6     2     8
Selective dynamics
Direct
  0.4812219283358932  0.5352589774510124  0.4992320752974848   T   T   T
  0.4516144591749473  0.5178043669709644  0.4997455183912354   T   T   T
  0.4516125182806682  0.4821959537298350  0.5002570762616129   T   T   T
  0.4812217177412226  0.4647416562278465  0.5007701984512208   T   T   T
  0.5124686259614670  0.4817676816348929  0.5007988601844360   T   T   T
  0.5124704403643385  0.5182325902039578  0.4992033840980692   T   T   T
  0.5410416901426067  0.4642619699330269  0.5023403841343717   T   T   T
  0.5410428152374969  0.5357380065707246  0.4976565753569696   T   T   T
  0.5640408287893260  0.4747949971156024  0.5039192634484528   T   T   T
  0.5403042949146174  0.4388914299274653  0.5034184305610605   T   T   T
  0.5640422200362517  0.5252023484962076  0.4960793983065338   T   T   T
  0.5403071237460443  0.5611084064583466  0.4965800743346256   T   T   T
  0.4813615604681646  0.4374929264023006  0.5015419794983598   T   T   T
  0.4279428745138674  0.4687148191362100  0.5003837569654146   T   T   T
  0.4279443480868608  0.5312865576040550  0.4996147221475103   T   T   T
  0.4813625542062271  0.5625073121375679  0.4984573025626593   T   T   T
 
  0.00000000E+00  0.00000000E+00  0.00000000E+00
  0.00000000E+00  0.00000000E+00  0.00000000E+00
  0.00000000E+00  0.00000000E+00  0.00000000E+00
  0.00000000E+00  0.00000000E+00  0.00000000E+00
  0.00000000E+00  0.00000000E+00  0.00000000E+00
  0.00000000E+00  0.00000000E+00  0.00000000E+00
  0.00000000E+00  0.00000000E+00  0.00000000E+00
  0.00000000E+00  0.00000000E+00  0.00000000E+00
  0.00000000E+00  0.00000000E+00  0.00000000E+00
  0.00000000E+00  0.00000000E+00  0.00000000E+00
  0.00000000E+00  0.00000000E+00  0.00000000E+00
  0.00000000E+00  0.00000000E+00  0.00000000E+00
  0.00000000E+00  0.00000000E+00  0.00000000E+00
  0.00000000E+00  0.00000000E+00  0.00000000E+00
  0.00000000E+00  0.00000000E+00  0.00000000E+00
  0.00000000E+00  0.00000000E+00  0.00000000E+00
