C N S H                                 
   1.00000000000000     
    40.0000000000000000    0.0000000000000000    0.0000000000000000
     0.0000000000000000   40.0000000000000000    0.0000000000000000
     0.0000000000000000    0.0000000000000000   40.0000000000000000
   C    N    S    H 
    16     3     1    18
Selective dynamics
Direct
  0.4657904289849489  0.5040045558435025  0.4998862607956888   T   T   T
  0.4341008847735798  0.5185288155054497  0.4998032851689825   T   T   T
  0.4047781701434056  0.4987118325356690  0.4996646261674075   T   T   T
  0.4089652779951669  0.4633799697376147  0.4996602274497628   T   T   T
  0.4404898627260947  0.4492967122574337  0.4997718691195397   T   T   T
  0.4704009628443888  0.4685218717839827  0.4998800087604301   T   T   T
  0.5296007223153775  0.4685251030857193  0.5001109219696626   T   T   T
  0.5595141893230701  0.4493038147894993  0.5002078360466440   T   T   T
  0.5910397525370169  0.4633900593513228  0.5003345118331810   T   T   T
  0.5952195414880428  0.4987249484843988  0.5003540051067787   T   T   T
  0.5658943831386636  0.5185371135938742  0.5002240978524644   T   T   T
  0.5342090587380914  0.5040112944117840  0.5001299645885732   T   T   T
  0.6299976176786990  0.5491522627972035  0.5004700073462482   T   T   T
  0.6561685738024625  0.4921259980988056  0.5005348625528560   T   T   T
  0.3438321118452816  0.4921175059746206  0.4994689459736176   T   T   T
  0.3700009623912388  0.5491448316559433  0.4995237101560849   T   T   T
  0.5000028858594537  0.4517822707958213  0.4999912675485000   T   T   T
  0.6264897191294366  0.5130440596781032  0.5004778997562075   T   T   T
  0.3735082424468320  0.5130353922617359  0.4995577845350240   T   T   T
  0.4999962832169267  0.5313647301947109  0.5000203881869222   T   T   T
  0.4433958059379431  0.4221721150858623  0.4997928281340447   T   T   T
  0.5677694491392482  0.5457264797620200  0.5002287892971045   T   T   T
  0.6185684103932245  0.5605374368857063  0.4780884158384678   T   T   T
  0.6183248859357651  0.5605522930446315  0.5227197530121170   T   T   T
  0.6565769583119524  0.5556534049737649  0.5006173960978277   T   T   T
  0.6783933808618111  0.5080818501512145  0.5006705309994409   T   T   T
  0.6572244314333241  0.4758976922371819  0.5228061020312103   T   T   T
  0.6574052449882897  0.4760289262961411  0.4781756796933695   T   T   T
  0.6127757169951343  0.4470309976960389  0.5003816100648509   T   T   T
  0.5566113685058619  0.4221791322591060  0.5001664011460834   T   T   T
  0.3872275092439040  0.4470182376342502  0.4995936595176766   T   T   T
  0.3426162605842984  0.4759668191549215  0.5217914495547069   T   T   T
  0.3427564399647487  0.4759427271723371  0.4771611281500729   T   T   T
  0.3216055797144675  0.5080742965291541  0.4993936680516251   T   T   T
  0.3814380623707962  0.5605534204356097  0.5218883346692585   T   T   T
  0.3816632667869636  0.5605221190235972  0.4772565473929535   T   T   T
  0.3434209849055723  0.5556422306383112  0.4993825295881412   T   T   T
  0.4322266125485376  0.5457166781829349  0.4998156958464582   T   T   T
 
  0.00000000E+00  0.00000000E+00  0.00000000E+00
  0.00000000E+00  0.00000000E+00  0.00000000E+00
  0.00000000E+00  0.00000000E+00  0.00000000E+00
  0.00000000E+00  0.00000000E+00  0.00000000E+00
  0.00000000E+00  0.00000000E+00  0.00000000E+00
  0.00000000E+00  0.00000000E+00  0.00000000E+00
  0.00000000E+00  0.00000000E+00  0.00000000E+00
  0.00000000E+00  0.00000000E+00  0.00000000E+00
  0.00000000E+00  0.00000000E+00  0.00000000E+00
  0.00000000E+00  0.00000000E+00  0.00000000E+00
  0.00000000E+00  0.00000000E+00  0.00000000E+00
  0.00000000E+00  0.00000000E+00  0.00000000E+00
  0.00000000E+00  0.00000000E+00  0.00000000E+00
  0.00000000E+00  0.00000000E+00  0.00000000E+00
  0.00000000E+00  0.00000000E+00  0.00000000E+00
  0.00000000E+00  0.00000000E+00  0.00000000E+00
  0.00000000E+00  0.00000000E+00  0.00000000E+00
  0.00000000E+00  0.00000000E+00  0.00000000E+00
  0.00000000E+00  0.00000000E+00  0.00000000E+00
  0.00000000E+00  0.00000000E+00  0.00000000E+00
  0.00000000E+00  0.00000000E+00  0.00000000E+00
  0.00000000E+00  0.00000000E+00  0.00000000E+00
  0.00000000E+00  0.00000000E+00  0.00000000E+00
  0.00000000E+00  0.00000000E+00  0.00000000E+00
  0.00000000E+00  0.00000000E+00  0.00000000E+00
  0.00000000E+00  0.00000000E+00  0.00000000E+00
  0.00000000E+00  0.00000000E+00  0.00000000E+00
  0.00000000E+00  0.00000000E+00  0.00000000E+00
  0.00000000E+00  0.00000000E+00  0.00000000E+00
  0.00000000E+00  0.00000000E+00  0.00000000E+00
  0.00000000E+00  0.00000000E+00  0.00000000E+00
  0.00000000E+00  0.00000000E+00  0.00000000E+00
  0.00000000E+00  0.00000000E+00  0.00000000E+00
  0.00000000E+00  0.00000000E+00  0.00000000E+00
  0.00000000E+00  0.00000000E+00  0.00000000E+00
  0.00000000E+00  0.00000000E+00  0.00000000E+00
  0.00000000E+00  0.00000000E+00  0.00000000E+00
  0.00000000E+00  0.00000000E+00  0.00000000E+00
