C N H                                   
   1.00000000000000     
    40.0000000000000000    0.0000000000000000    0.0000000000000000
     0.0000000000000000   40.0000000000000000    0.0000000000000000
     0.0000000000000000    0.0000000000000000   40.0000000000000000
   C    N    H 
     6     2     8
Selective dynamics
Direct
  0.4813026310280327  0.5351278050938592  0.4992106741583130   T   T   T
  0.4518990743190381  0.5177665227005461  0.4997175734661286   T   T   T
  0.4518971334247590  0.4822337980002530  0.5002850211867195   T   T   T
  0.4813024204333621  0.4648728285849994  0.5007915995903929   T   T   T
  0.5122643581549509  0.4819013044382323  0.5007921984282334   T   T   T
  0.5122661725578224  0.5180989674006179  0.4992100458542724   T   T   T
  0.5408391609130164  0.4644869444286262  0.5022182662805114   T   T   T
  0.5408402860079066  0.5355130320751252  0.4977786932108294   T   T   T
  0.5636879708020909  0.4748180923039800  0.5038156834845521   T   T   T
  0.5401015588330893  0.4393220875003948  0.5033903737581863   T   T   T
  0.5636893620490165  0.5251792533078298  0.4961829782704344   T   T   T
  0.5401043876645162  0.5606777488854163  0.4966081311374995   T   T   T
  0.4815273099809188  0.4378082554013440  0.5015272167950718   T   T   T
  0.4283741982697457  0.4688880580379830  0.5004555811173330   T   T   T
  0.4283756718427391  0.5311133187022817  0.4995428979955922   T   T   T
  0.4815283037189813  0.5621919831385248  0.4984720652659471   T   T   T
 
  0.00000000E+00  0.00000000E+00  0.00000000E+00
  0.00000000E+00  0.00000000E+00  0.00000000E+00
  0.00000000E+00  0.00000000E+00  0.00000000E+00
  0.00000000E+00  0.00000000E+00  0.00000000E+00
  0.00000000E+00  0.00000000E+00  0.00000000E+00
  0.00000000E+00  0.00000000E+00  0.00000000E+00
  0.00000000E+00  0.00000000E+00  0.00000000E+00
  0.00000000E+00  0.00000000E+00  0.00000000E+00
  0.00000000E+00  0.00000000E+00  0.00000000E+00
  0.00000000E+00  0.00000000E+00  0.00000000E+00
  0.00000000E+00  0.00000000E+00  0.00000000E+00
  0.00000000E+00  0.00000000E+00  0.00000000E+00
  0.00000000E+00  0.00000000E+00  0.00000000E+00
  0.00000000E+00  0.00000000E+00  0.00000000E+00
  0.00000000E+00  0.00000000E+00  0.00000000E+00
  0.00000000E+00  0.00000000E+00  0.00000000E+00
