C O S H                                 
   1.00000000000000     
    40.0000000000000000    0.0000000000000000    0.0000000000000000
     0.0000000000000000   40.0000000000000000    0.0000000000000000
     0.0000000000000000    0.0000000000000000   40.0000000000000000
   C    O    S    H 
    14     2     2    14
Selective dynamics
Direct
  0.5477865179729211  0.5348084453949323  0.5072181705935295   T   T   T
  0.5419309911089750  0.5088938822872492  0.4843397811247430   T   T   T
  0.5668530547316187  0.4855953401208810  0.4775810951771111   T   T   T
  0.5979652078889721  0.4876115238255328  0.4937881658853329   T   T   T
  0.6038762632621149  0.5134179500886731  0.5168141212017039   T   T   T
  0.5788273516496105  0.5369433728660274  0.5232753285968240   T   T   T
  0.6529383273369926  0.4646998841926903  0.5013088218676576   T   T   T
  0.4522154702452130  0.5348155338090496  0.4927920675718673   T   T   T
  0.4580694261396084  0.5088915554971019  0.5156630141241565   T   T   T
  0.4331458805564117  0.4855945688672473  0.5224151354539714   T   T   T
  0.4020319779265957  0.4876203460348600  0.5062114552982980   T   T   T
  0.3961237269196455  0.5134350516922785  0.4831937882090107   T   T   T
  0.4211737039516798  0.5369618524305678  0.4767412234993865   T   T   T
  0.3470596331679683  0.4647122047436938  0.4986756496741827   T   T   T
  0.6207549025354723  0.4634830005763468  0.4854068858983396   T   T   T
  0.3792430438469662  0.4634885134179911  0.5145830342980932   T   T   T
  0.5172966820450481  0.5654191838159481  0.5185687868914983   T   T   T
  0.4827099596714568  0.5654237934565242  0.4814450652246577   T   T   T
  0.5838019856705075  0.5570781777959226  0.5410180034851203   T   T   T
  0.6277772475763644  0.5157643377478190  0.5296215957347508   T   T   T
  0.6506122330389449  0.4621077603461564  0.5286142036728936   T   T   T
  0.6660680217523179  0.4881484494841110  0.4953396634571385   T   T   T
  0.6669485677194777  0.4434784414214520  0.4911937527703415   T   T   T
  0.5624895627073160  0.4654732246924233  0.4597000008045853   T   T   T
  0.5179178291598900  0.5070085293699775  0.4715342520869328   T   T   T
  0.4161983045310083  0.5571016377651054  0.4590038847123656   T   T   T
  0.3722234529448762  0.5157846668258159  0.4703894271717787   T   T   T
  0.3493896832167798  0.4621269803574352  0.4713710376516295   T   T   T
  0.3330488804199793  0.4434885393894130  0.5087824210698362   T   T   T
  0.3339302497657600  0.4881575957483346  0.5046515908485201   T   T   T
  0.4375093972904311  0.4654655684205051  0.5402890736621312   T   T   T
  0.4820834632490946  0.5070000875179550  0.5284665022816197   T   T   T
 
  0.00000000E+00  0.00000000E+00  0.00000000E+00
  0.00000000E+00  0.00000000E+00  0.00000000E+00
  0.00000000E+00  0.00000000E+00  0.00000000E+00
  0.00000000E+00  0.00000000E+00  0.00000000E+00
  0.00000000E+00  0.00000000E+00  0.00000000E+00
  0.00000000E+00  0.00000000E+00  0.00000000E+00
  0.00000000E+00  0.00000000E+00  0.00000000E+00
  0.00000000E+00  0.00000000E+00  0.00000000E+00
  0.00000000E+00  0.00000000E+00  0.00000000E+00
  0.00000000E+00  0.00000000E+00  0.00000000E+00
  0.00000000E+00  0.00000000E+00  0.00000000E+00
  0.00000000E+00  0.00000000E+00  0.00000000E+00
  0.00000000E+00  0.00000000E+00  0.00000000E+00
  0.00000000E+00  0.00000000E+00  0.00000000E+00
  0.00000000E+00  0.00000000E+00  0.00000000E+00
  0.00000000E+00  0.00000000E+00  0.00000000E+00
  0.00000000E+00  0.00000000E+00  0.00000000E+00
  0.00000000E+00  0.00000000E+00  0.00000000E+00
  0.00000000E+00  0.00000000E+00  0.00000000E+00
  0.00000000E+00  0.00000000E+00  0.00000000E+00
  0.00000000E+00  0.00000000E+00  0.00000000E+00
  0.00000000E+00  0.00000000E+00  0.00000000E+00
  0.00000000E+00  0.00000000E+00  0.00000000E+00
  0.00000000E+00  0.00000000E+00  0.00000000E+00
  0.00000000E+00  0.00000000E+00  0.00000000E+00
  0.00000000E+00  0.00000000E+00  0.00000000E+00
  0.00000000E+00  0.00000000E+00  0.00000000E+00
  0.00000000E+00  0.00000000E+00  0.00000000E+00
  0.00000000E+00  0.00000000E+00  0.00000000E+00
  0.00000000E+00  0.00000000E+00  0.00000000E+00
  0.00000000E+00  0.00000000E+00  0.00000000E+00
  0.00000000E+00  0.00000000E+00  0.00000000E+00
