!PBE0 def2-SV(p) Opt Freq d3 TightSCF SlowConv RIJCOSX defgrid2
 
%pal
nprocs 4
end
 
%scf
MaxIter 1500
end
 
%maxcore 3000
 

 
* xyz 1 2
C     0.9801767   -1.3256342   -0.0000794 
C     2.3228839   -1.0348525   -0.0000570 
C     2.7534513    0.2990573    0.0000026 
C     1.8223395    1.3451745    0.0000470 
C     0.4780348    1.0706469    0.0000584 
C     0.0270925   -0.2774183   -0.0000181 
C    -1.3650204   -0.5839261    0.0000447 
N    -2.2436273    0.3584720   -0.0000883 
O    -3.5272842    0.0573824    0.0006668 
H    -4.0431032    0.8928328   -0.0004397 
H    -1.6738924   -1.6313864    0.0001177 
H    -0.2565241    1.8609925    0.0000229 
H     2.1688570    2.3671751    0.0000272 
H     3.8101168    0.5203203   -0.0000001 
H     3.0514411   -1.8306758   -0.0000443 
H     0.6427509   -2.3507845   -0.0000698
*
