!TPSSh opt aug-cc-pVTZ d3 TightSCF SlowConv RIJCOSX defgrid2

%pal
nprocs 8
end

%scf
MaxIter 1500
end

%maxcore 3500

!CPCM
%cpcm smd true
SMDsolvent "MeCN"
surfacetype gepol_ses
rsolv 2.19
end 

* xyz 0 1
6        0.691365000     -1.226985000      0.065439200
6       -0.692233200     -1.223627800      0.036696600
6       -1.346067600      0.003573800     -0.000059000
6       -0.668141200      1.214450400     -0.034287200
6        0.718624600      1.192362000     -0.055443000
6        1.406886800     -0.024534000      0.010096000
6        2.905302000     -0.080294200      0.023341200
8        3.474020400     -1.162134600      0.319931200
6        3.671003000      1.211649200     -0.345583800
1        3.459107800      2.035474000      0.392866800
1        4.738230800      1.000879600     -0.339054600
1        3.369861200      1.578828600     -1.367267400
1        1.256648800      2.130010400     -0.113147600
1       -1.214816800      2.145566800     -0.067715800
7       -2.815303600      0.019258200     -0.004916200
8       -3.380628600      1.108798800      0.489881600
8       -3.403017400     -1.058846000     -0.501389600
1       -1.259222800     -2.142897600      0.064386400
1        1.235445600     -2.161760000      0.123211800
*
