C H                                     
   1.00000000000000     
    40.0000000000000000    0.0000000000000000    0.0000000000000000
     0.0000000000000000   40.0000000000000000    0.0000000000000000
     0.0000000000000000    0.0000000000000000   40.0000000000000000
   C    H 
    10    12
Selective dynamics
Direct
  0.4950063203656255  0.4743077428654934  0.5001090168896130   T   T   T
  0.4608527371617077  0.4703624096466061  0.5001787106464310   T   T   T
  0.4390663803338107  0.4985001606160597  0.5002646792672162   T   T   T
  0.4531722764481068  0.5310221020056543  0.5002074918170006   T   T   T
  0.4873285644804765  0.5353167106742288  0.5000967554090787   T   T   T
  0.5093675184550310  0.5071459882566632  0.5000683890905977   T   T   T
  0.5443630430802922  0.5135277199313089  0.5000298607069151   T   T   T
  0.5695622487525304  0.4898035853212234  0.5000229561622668   T   T   T
  0.6053058327947641  0.4983307909991713  0.4999578453781170   T   T   T
  0.4022150835493161  0.4936833954626375  0.5000270295902325   T   T   T
  0.6176624587522476  0.4866913176104805  0.5217387713963382   T   T   T
  0.6176041414891084  0.4866089369197237  0.4781861367791155   T   T   T
  0.6099816394697801  0.5253158455914771  0.4999070596217111   T   T   T
  0.5631394001566480  0.4632488612148242  0.5000757420926258   T   T   T
  0.5518308956353390  0.5398183782018650  0.4999657710882891   T   T   T
  0.4981568843417317  0.5603423213315529  0.5000872012475676   T   T   T
  0.4366287562622196  0.5526778298355093  0.5002954565495887   T   T   T
  0.3886902575062037  0.5169773012865645  0.5050163327209295   T   T   T
  0.3943255717408715  0.4842741586732705  0.4753006794386549   T   T   T
  0.3946600268674428  0.4743996243747814  0.5181129439579281   T   T   T
  0.4500203408938968  0.4453416261530864  0.5002467781645484   T   T   T
  0.5110596214628423  0.4523041930278295  0.5001053919852031   T   T   T
 
  0.00000000E+00  0.00000000E+00  0.00000000E+00
  0.00000000E+00  0.00000000E+00  0.00000000E+00
  0.00000000E+00  0.00000000E+00  0.00000000E+00
  0.00000000E+00  0.00000000E+00  0.00000000E+00
  0.00000000E+00  0.00000000E+00  0.00000000E+00
  0.00000000E+00  0.00000000E+00  0.00000000E+00
  0.00000000E+00  0.00000000E+00  0.00000000E+00
  0.00000000E+00  0.00000000E+00  0.00000000E+00
  0.00000000E+00  0.00000000E+00  0.00000000E+00
  0.00000000E+00  0.00000000E+00  0.00000000E+00
  0.00000000E+00  0.00000000E+00  0.00000000E+00
  0.00000000E+00  0.00000000E+00  0.00000000E+00
  0.00000000E+00  0.00000000E+00  0.00000000E+00
  0.00000000E+00  0.00000000E+00  0.00000000E+00
  0.00000000E+00  0.00000000E+00  0.00000000E+00
  0.00000000E+00  0.00000000E+00  0.00000000E+00
  0.00000000E+00  0.00000000E+00  0.00000000E+00
  0.00000000E+00  0.00000000E+00  0.00000000E+00
  0.00000000E+00  0.00000000E+00  0.00000000E+00
  0.00000000E+00  0.00000000E+00  0.00000000E+00
  0.00000000E+00  0.00000000E+00  0.00000000E+00
  0.00000000E+00  0.00000000E+00  0.00000000E+00
