C N H                                   
   1.00000000000000     
    40.0000000000000000    0.0000000000000000    0.0000000000000000
     0.0000000000000000   40.0000000000000000    0.0000000000000000
     0.0000000000000000    0.0000000000000000   40.0000000000000000
   C    N    H 
     8     1    11
Selective dynamics
Direct
  0.4801115180016708  0.5303047492534816  0.5001141501090274   T   T   T
  0.4452540175138608  0.5300192961579526  0.5003231133854058   T   T   T
  0.4273434099584037  0.5000017563776495  0.5004201818809193   T   T   T
  0.4452521022763420  0.4699843922940659  0.5003161646160166   T   T   T
  0.4801096988060038  0.4696970337911566  0.5001072049405053   T   T   T
  0.4985373688818981  0.4999986984003044  0.4999868711436264   T   T   T
  0.5511820793382114  0.5313664507673721  0.4997073801729144   T   T   T
  0.5511800574517665  0.4686304310515084  0.4997144734758479   T   T   T
  0.5330109828673599  0.4999992067454357  0.4997196687326166   T   T   T
  0.5780743297015718  0.5262674367180296  0.4995087646933740   T   T   T
  0.5452837932050798  0.5466928615581068  0.4775193677756491   T   T   T
  0.5455892611866062  0.5465373755080805  0.5220888007881328   T   T   T
  0.5780723574360849  0.4737279673678216  0.4995335869756303   T   T   T
  0.5455725003318292  0.4534589967604674  0.5220911424093018   T   T   T
  0.5452946761266517  0.4533053826247198  0.4775220358768948   T   T   T
  0.4930614661122590  0.4457666540707521  0.5000043202779523   T   T   T
  0.4319540478331874  0.4461559947142320  0.5003701446650197   T   T   T
  0.4000969567401640  0.5000023697353413  0.5005541875634805   T   T   T
  0.4319563787777554  0.5538473924399980  0.5003829443711894   T   T   T
  0.4930639974533051  0.5542345536635054  0.5000164961464861   T   T   T
 
  0.00000000E+00  0.00000000E+00  0.00000000E+00
  0.00000000E+00  0.00000000E+00  0.00000000E+00
  0.00000000E+00  0.00000000E+00  0.00000000E+00
  0.00000000E+00  0.00000000E+00  0.00000000E+00
  0.00000000E+00  0.00000000E+00  0.00000000E+00
  0.00000000E+00  0.00000000E+00  0.00000000E+00
  0.00000000E+00  0.00000000E+00  0.00000000E+00
  0.00000000E+00  0.00000000E+00  0.00000000E+00
  0.00000000E+00  0.00000000E+00  0.00000000E+00
  0.00000000E+00  0.00000000E+00  0.00000000E+00
  0.00000000E+00  0.00000000E+00  0.00000000E+00
  0.00000000E+00  0.00000000E+00  0.00000000E+00
  0.00000000E+00  0.00000000E+00  0.00000000E+00
  0.00000000E+00  0.00000000E+00  0.00000000E+00
  0.00000000E+00  0.00000000E+00  0.00000000E+00
  0.00000000E+00  0.00000000E+00  0.00000000E+00
  0.00000000E+00  0.00000000E+00  0.00000000E+00
  0.00000000E+00  0.00000000E+00  0.00000000E+00
  0.00000000E+00  0.00000000E+00  0.00000000E+00
  0.00000000E+00  0.00000000E+00  0.00000000E+00
