C H                                     
   1.00000000000000     
    40.0000000000000000    0.0000000000000000    0.0000000000000000
     0.0000000000000000   40.0000000000000000    0.0000000000000000
     0.0000000000000000    0.0000000000000000   40.0000000000000000
   C    H 
     8    10
Selective dynamics
Direct
  0.4445889461066069  0.4825291250289669  0.5000008961468372   T   T   T
  0.4750175600887763  0.4652989288742275  0.5000003704904220   T   T   T
  0.5056836125351032  0.4823048900563132  0.4999997848332243   T   T   T
  0.5381055592113200  0.4631566372288605  0.4999986676494907   T   T   T
  0.5056836125351032  0.5176951099436869  0.5000002151667756   T   T   T
  0.5381055592113200  0.5368423627711419  0.5000003323505119   T   T   T
  0.4750175600887763  0.5347010711257725  0.5000006295095755   T   T   T
  0.4445889461066069  0.5174708749710331  0.5000011038531578   T   T   T
  0.5534155279834462  0.4693056850139537  0.5220491091372573   T   T   T
  0.5336053067481492  0.4360869404821546  0.5000008832454903   T   T   T
  0.5534117426890868  0.4693025575595610  0.4779449166047537   T   T   T
  0.5534145279834487  0.5306943149860462  0.4779488908627406   T   T   T
  0.5336053067481492  0.5639130595178455  0.4999981167545050   T   T   T
  0.5534127426890914  0.5306974424404391  0.5220540833952488   T   T   T
  0.4210741582968991  0.5313041659002217  0.5000011064229860   T   T   T
  0.4750985863406097  0.5620265777321021  0.5000010192684775   T   T   T
  0.4750985863406097  0.4379734222678979  0.4999999807315201   T   T   T
  0.4210741582968991  0.4686958340997782  0.5000008935770089   T   T   T
 
  0.00000000E+00  0.00000000E+00  0.00000000E+00
  0.00000000E+00  0.00000000E+00  0.00000000E+00
  0.00000000E+00  0.00000000E+00  0.00000000E+00
  0.00000000E+00  0.00000000E+00  0.00000000E+00
  0.00000000E+00  0.00000000E+00  0.00000000E+00
  0.00000000E+00  0.00000000E+00  0.00000000E+00
  0.00000000E+00  0.00000000E+00  0.00000000E+00
  0.00000000E+00  0.00000000E+00  0.00000000E+00
  0.00000000E+00  0.00000000E+00  0.00000000E+00
  0.00000000E+00  0.00000000E+00  0.00000000E+00
  0.00000000E+00  0.00000000E+00  0.00000000E+00
  0.00000000E+00  0.00000000E+00  0.00000000E+00
  0.00000000E+00  0.00000000E+00  0.00000000E+00
  0.00000000E+00  0.00000000E+00  0.00000000E+00
  0.00000000E+00  0.00000000E+00  0.00000000E+00
  0.00000000E+00  0.00000000E+00  0.00000000E+00
  0.00000000E+00  0.00000000E+00  0.00000000E+00
  0.00000000E+00  0.00000000E+00  0.00000000E+00
