C H                                     
   1.00000000000000     
    40.0000000000000000    0.0000000000000000    0.0000000000000000
     0.0000000000000000   40.0000000000000000    0.0000000000000000
     0.0000000000000000    0.0000000000000000   40.0000000000000000
   C    H 
    14    10
Selective dynamics
Direct
  0.6021199560832582  0.5305025515539459  0.5000063633414278   T   T   T
  0.6193573828903478  0.5000013127831345  0.4999966077326104   T   T   T
  0.6021244538778251  0.4695006673310858  0.4999842402124991   T   T   T
  0.5677308291437654  0.4692093844914692  0.4999915878269187   T   T   T
  0.5499343422754797  0.4999977715382334  0.5000031658987029   T   T   T
  0.5677255813457033  0.5307888140232664  0.5000103372898597   T   T   T
  0.5153767604536238  0.4999939071598398  0.5000060320022094   T   T   T
  0.4846232510524502  0.4999940413443641  0.5000082852305033   T   T   T
  0.4500657952509194  0.4999981968077789  0.5000077107955821   T   T   T
  0.4322694750506594  0.4692091662219085  0.5000158460965741   T   T   T
  0.3978758671563611  0.4695001978782140  0.5000111128801674   T   T   T
  0.3806412136191223  0.5000013966351508  0.4999993933056593   T   T   T
  0.3978802988658932  0.5305022217434757  0.4999872373149720   T   T   T
  0.4322731264091459  0.5307887412332600  0.4999943568181247   T   T   T
  0.5538316966027116  0.5539995942477695  0.5000184908625845   T   T   T
  0.4461684668600785  0.5540004630932286  0.4999898075127597   T   T   T
  0.3841115439607705  0.5537927181340748  0.4999795088460063   T   T   T
  0.3535641561262556  0.5000037261508691  0.4999910751322759   T   T   T
  0.3841048880545239  0.4462111435140755  0.5000135238116742   T   T   T
  0.4461611114696239  0.4459969176100709  0.5000222494659350   T   T   T
  0.5538394634703301  0.4459967047339026  0.4999868831110810   T   T   T
  0.6158957850856146  0.4462119718412069  0.4999778523687249   T   T   T
  0.6464355031353465  0.5000048673208402  0.4999894607480575   T   T   T
  0.6158880517601926  0.5537935226088635  0.5000098713950802   T   T   T
 
  0.00000000E+00  0.00000000E+00  0.00000000E+00
  0.00000000E+00  0.00000000E+00  0.00000000E+00
  0.00000000E+00  0.00000000E+00  0.00000000E+00
  0.00000000E+00  0.00000000E+00  0.00000000E+00
  0.00000000E+00  0.00000000E+00  0.00000000E+00
  0.00000000E+00  0.00000000E+00  0.00000000E+00
  0.00000000E+00  0.00000000E+00  0.00000000E+00
  0.00000000E+00  0.00000000E+00  0.00000000E+00
  0.00000000E+00  0.00000000E+00  0.00000000E+00
  0.00000000E+00  0.00000000E+00  0.00000000E+00
  0.00000000E+00  0.00000000E+00  0.00000000E+00
  0.00000000E+00  0.00000000E+00  0.00000000E+00
  0.00000000E+00  0.00000000E+00  0.00000000E+00
  0.00000000E+00  0.00000000E+00  0.00000000E+00
  0.00000000E+00  0.00000000E+00  0.00000000E+00
  0.00000000E+00  0.00000000E+00  0.00000000E+00
  0.00000000E+00  0.00000000E+00  0.00000000E+00
  0.00000000E+00  0.00000000E+00  0.00000000E+00
  0.00000000E+00  0.00000000E+00  0.00000000E+00
  0.00000000E+00  0.00000000E+00  0.00000000E+00
  0.00000000E+00  0.00000000E+00  0.00000000E+00
  0.00000000E+00  0.00000000E+00  0.00000000E+00
  0.00000000E+00  0.00000000E+00  0.00000000E+00
  0.00000000E+00  0.00000000E+00  0.00000000E+00
