!PBE0 def2-SV(p) Opt Freq d3 TightSCF SlowConv RIJCOSX defgrid2
 
%pal
nprocs 4
end
 
%scf
MaxIter 1500
end
 
%maxcore 3000
 

 
* xyz 1 2
C     0.3748005    1.1135174   -0.0000017 
C     1.2162412   -0.0278933   -0.0000154 
C     0.3239960   -1.1401165   -0.0000189 
N    -0.8826486   -0.6736706    0.0000182 
N    -0.8708901    0.6648723   -0.0000142 
H    -1.7447624    1.1921389   -0.0000205 
H     0.5552613   -2.1889520    0.0000058 
H     2.2908055   -0.0698276    0.0000366 
H     0.6409232    2.1564939   -0.0000032
*
