C O H                                   
   1.00000000000000     
    40.0000000000000000    0.0000000000000000    0.0000000000000000
     0.0000000000000000   40.0000000000000000    0.0000000000000000
     0.0000000000000000    0.0000000000000000   40.0000000000000000
   C    O    H 
     9     1     8
Selective dynamics
Direct
  0.4885234584101617  0.4768939623124550  0.4999957492831778   T   T   T
  0.4739483816979222  0.5092648318766583  0.4999977131924487   T   T   T
  0.4941925837790074  0.5385721964007157  0.4999944037244376   T   T   T
  0.5280870771387733  0.5356215115124903  0.4999936192960477   T   T   T
  0.5431193310094748  0.5032842139976219  0.4999955441585316   T   T   T
  0.5225130021596106  0.4741266344590171  0.4999955174636809   T   T   T
  0.5776246198389455  0.5000616558015588  0.5000025530712152   T   T   T
  0.6079089355090393  0.4973248307300602  0.5000149764177777   T   T   T
  0.4180558273832955  0.4871601661304255  0.5000039616675304   T   T   T
  0.4415898160433480  0.5147889257839270  0.4999983307115846   T   T   T
  0.5343530889500129  0.4498048634672937  0.4999885201288861   T   T   T
  0.6344358710986912  0.4948735323128418  0.5000248243927288   T   T   T
  0.5439652915027536  0.5575102826447752  0.4999931160834243   T   T   T
  0.4818455575652553  0.5626373271144631  0.4999955257475780   T   T   T
  0.3936495010741986  0.4989099206099183  0.5000108114832904   T   T   T
  0.4215618417522881  0.4722061332902321  0.4775180298270363   T   T   T
  0.4215742780352876  0.4722037720727514  0.5224862010442827   T   T   T
  0.4730505370519370  0.4547552394827882  0.4999906023063344   T   T   T
 
  0.00000000E+00  0.00000000E+00  0.00000000E+00
  0.00000000E+00  0.00000000E+00  0.00000000E+00
  0.00000000E+00  0.00000000E+00  0.00000000E+00
  0.00000000E+00  0.00000000E+00  0.00000000E+00
  0.00000000E+00  0.00000000E+00  0.00000000E+00
  0.00000000E+00  0.00000000E+00  0.00000000E+00
  0.00000000E+00  0.00000000E+00  0.00000000E+00
  0.00000000E+00  0.00000000E+00  0.00000000E+00
  0.00000000E+00  0.00000000E+00  0.00000000E+00
  0.00000000E+00  0.00000000E+00  0.00000000E+00
  0.00000000E+00  0.00000000E+00  0.00000000E+00
  0.00000000E+00  0.00000000E+00  0.00000000E+00
  0.00000000E+00  0.00000000E+00  0.00000000E+00
  0.00000000E+00  0.00000000E+00  0.00000000E+00
  0.00000000E+00  0.00000000E+00  0.00000000E+00
  0.00000000E+00  0.00000000E+00  0.00000000E+00
  0.00000000E+00  0.00000000E+00  0.00000000E+00
  0.00000000E+00  0.00000000E+00  0.00000000E+00
