C H                                     
   1.00000000000000     
    40.0000000000000000    0.0000000000000000    0.0000000000000000
     0.0000000000000000   40.0000000000000000    0.0000000000000000
     0.0000000000000000    0.0000000000000000   40.0000000000000000
   C    H 
     6     6
Selective dynamics
Direct
  0.4685079947578333  0.5162617378508173  0.5000000000000000   T   T   T
  0.4991494303851157  0.5344791435486547  0.5000000000000000   T   T   T
  0.5306383408026756  0.5178612823234157  0.5000000000000000   T   T   T
  0.5314920052421668  0.4837382621491828  0.5000000000000000   T   T   T
  0.5008505696148844  0.4655208564513452  0.5000000000000000   T   T   T
  0.4693616591973243  0.4821387176765844  0.5000000000000000   T   T   T
  0.4466312764182409  0.4674998964216275  0.5000000000000000   T   T   T
  0.5015470289745140  0.4384804235236898  0.5000000000000000   T   T   T
  0.5549147148389778  0.4702361460466601  0.4999990000000025   T   T   T
  0.5533687235817663  0.5325001035783725  0.5000000000000000   T   T   T
  0.4984529710254931  0.5615195764763102  0.5000000000000000   T   T   T
  0.4450852851610222  0.5297638539533470  0.5000000000000000   T   T   T
 
  0.00000000E+00  0.00000000E+00  0.00000000E+00
  0.00000000E+00  0.00000000E+00  0.00000000E+00
  0.00000000E+00  0.00000000E+00  0.00000000E+00
  0.00000000E+00  0.00000000E+00  0.00000000E+00
  0.00000000E+00  0.00000000E+00  0.00000000E+00
  0.00000000E+00  0.00000000E+00  0.00000000E+00
  0.00000000E+00  0.00000000E+00  0.00000000E+00
  0.00000000E+00  0.00000000E+00  0.00000000E+00
  0.00000000E+00  0.00000000E+00  0.00000000E+00
  0.00000000E+00  0.00000000E+00  0.00000000E+00
  0.00000000E+00  0.00000000E+00  0.00000000E+00
  0.00000000E+00  0.00000000E+00  0.00000000E+00
