C O S H                                 
   1.00000000000000     
    40.0000000000000000    0.0000000000000000    0.0000000000000000
     0.0000000000000000   40.0000000000000000    0.0000000000000000
     0.0000000000000000    0.0000000000000000   40.0000000000000000
   C    O    S    H 
    14     2     2    14
Selective dynamics
Direct
  0.5487328136900089  0.5331611356663686  0.5060546898718599   T   T   T
  0.5442932201569448  0.5074496095078445  0.4822300617282878   T   T   T
  0.5702067298900673  0.4857091409365850  0.4754139512848923   T   T   T
  0.6010464173920553  0.4889566499632991  0.4923770287394262   T   T   T
  0.6057658474453333  0.5149970587537993  0.5157790691916233   T   T   T
  0.5798064414692021  0.5370516276672177  0.5222951070731128   T   T   T
  0.6557686146834172  0.4659128780223654  0.5023871105073425   T   T   T
  0.4512707908356077  0.5331813418937372  0.4939089136550976   T   T   T
  0.4557249807609765  0.5074694072995882  0.5177286925107296   T   T   T
  0.4298030056455460  0.4857423956961568  0.5245798033040217   T   T   T
  0.3989521912169565  0.4890016055330264  0.5076467339309332   T   T   T
  0.3942183448863616  0.5150481008048118  0.4842445762619931   T   T   T
  0.4201760977478131  0.5370944271102189  0.4776930990743651   T   T   T
  0.3442304501428737  0.4659634010385076  0.4976534836898949   T   T   T
  0.6242168459567665  0.4657258745972754  0.4847338487074069   T   T   T
  0.3757751056605514  0.4657950901409365  0.5153179515375115   T   T   T
  0.5162096444304609  0.5593117394678160  0.5195841982602047   T   T   T
  0.4837975683953246  0.5592990448762905  0.4803253987813463   T   T   T
  0.5834958888661887  0.5572064194303508  0.5402656998846993   T   T   T
  0.6294870764651108  0.5181273925437608  0.5287041818083935   T   T   T
  0.6516128303529314  0.4633134536307608  0.5294155073233782   T   T   T
  0.6696763464550699  0.4889678730200160  0.4969940077078689   T   T   T
  0.6694371041584048  0.4442348983307767  0.4928694345372122   T   T   T
  0.5670363563479341  0.4653442401070507  0.4575793039912313   T   T   T
  0.5203267933823454  0.5042218590972993  0.4696587558095189   T   T   T
  0.4164729031415533  0.5572476665632067  0.4597307859529849   T   T   T
  0.3704841475002851  0.5181855276736087  0.4713428313057690   T   T   T
  0.3484032316067314  0.4633658798940559  0.4706269986976181   T   T   T
  0.3305683261505266  0.4442881630474105  0.5071597676340573   T   T   T
  0.3303122134126326  0.4890122424079806  0.5030352996248695   T   T   T
  0.4329911184513620  0.4653769563386660  0.5423998292818553   T   T   T
  0.4797015533026467  0.5042368989392330  0.5302608783305089   T   T   T
 
  0.00000000E+00  0.00000000E+00  0.00000000E+00
  0.00000000E+00  0.00000000E+00  0.00000000E+00
  0.00000000E+00  0.00000000E+00  0.00000000E+00
  0.00000000E+00  0.00000000E+00  0.00000000E+00
  0.00000000E+00  0.00000000E+00  0.00000000E+00
  0.00000000E+00  0.00000000E+00  0.00000000E+00
  0.00000000E+00  0.00000000E+00  0.00000000E+00
  0.00000000E+00  0.00000000E+00  0.00000000E+00
  0.00000000E+00  0.00000000E+00  0.00000000E+00
  0.00000000E+00  0.00000000E+00  0.00000000E+00
  0.00000000E+00  0.00000000E+00  0.00000000E+00
  0.00000000E+00  0.00000000E+00  0.00000000E+00
  0.00000000E+00  0.00000000E+00  0.00000000E+00
  0.00000000E+00  0.00000000E+00  0.00000000E+00
  0.00000000E+00  0.00000000E+00  0.00000000E+00
  0.00000000E+00  0.00000000E+00  0.00000000E+00
  0.00000000E+00  0.00000000E+00  0.00000000E+00
  0.00000000E+00  0.00000000E+00  0.00000000E+00
  0.00000000E+00  0.00000000E+00  0.00000000E+00
  0.00000000E+00  0.00000000E+00  0.00000000E+00
  0.00000000E+00  0.00000000E+00  0.00000000E+00
  0.00000000E+00  0.00000000E+00  0.00000000E+00
  0.00000000E+00  0.00000000E+00  0.00000000E+00
  0.00000000E+00  0.00000000E+00  0.00000000E+00
  0.00000000E+00  0.00000000E+00  0.00000000E+00
  0.00000000E+00  0.00000000E+00  0.00000000E+00
  0.00000000E+00  0.00000000E+00  0.00000000E+00
  0.00000000E+00  0.00000000E+00  0.00000000E+00
  0.00000000E+00  0.00000000E+00  0.00000000E+00
  0.00000000E+00  0.00000000E+00  0.00000000E+00
  0.00000000E+00  0.00000000E+00  0.00000000E+00
  0.00000000E+00  0.00000000E+00  0.00000000E+00
