C O H                                   
   1.00000000000000     
    40.0000000000000000    0.0000000000000000    0.0000000000000000
     0.0000000000000000   40.0000000000000000    0.0000000000000000
     0.0000000000000000    0.0000000000000000   40.0000000000000000
   C    O    H 
     7     1     8
Selective dynamics
Direct
  0.4984746889655941  0.5230083998546244  0.4999990000000025   T   T   T
  0.4640883683871553  0.5295288243803402  0.4999990000000025   T   T   T
  0.4408585854615847  0.5035186092831991  0.5000000000000000   T   T   T
  0.4523159622566645  0.4704216332907753  0.5000009999999975   T   T   T
  0.4864144162203040  0.4634753808240374  0.5000009999999975   T   T   T
  0.5096833512366258  0.4897865499021178  0.5000000000000000   T   T   T
  0.5673301285819508  0.5063173767469836  0.5000000000000000   T   T   T
  0.5426651479146757  0.4804174158968411  0.5000000000000000   T   T   T
  0.5653551118021513  0.5221285320200172  0.4775285140447963   T   T   T
  0.5653541118021538  0.5221285320200172  0.5224714859552038   T   T   T
  0.5915509258674138  0.4935728822258518  0.5000009999999975   T   T   T
  0.4956382145498008  0.4378307238734406  0.5000020000000021   T   T   T
  0.4344945954272821  0.4497823397836331  0.5000020000000021   T   T   T
  0.4141409976272392  0.5088765868441951  0.5000000000000000   T   T   T
  0.4555655737313252  0.5554372636356704  0.4999979999999979   T   T   T
  0.5160698201680791  0.5437689494182626  0.4999979999999979   T   T   T
 
  0.00000000E+00  0.00000000E+00  0.00000000E+00
  0.00000000E+00  0.00000000E+00  0.00000000E+00
  0.00000000E+00  0.00000000E+00  0.00000000E+00
  0.00000000E+00  0.00000000E+00  0.00000000E+00
  0.00000000E+00  0.00000000E+00  0.00000000E+00
  0.00000000E+00  0.00000000E+00  0.00000000E+00
  0.00000000E+00  0.00000000E+00  0.00000000E+00
  0.00000000E+00  0.00000000E+00  0.00000000E+00
  0.00000000E+00  0.00000000E+00  0.00000000E+00
  0.00000000E+00  0.00000000E+00  0.00000000E+00
  0.00000000E+00  0.00000000E+00  0.00000000E+00
  0.00000000E+00  0.00000000E+00  0.00000000E+00
  0.00000000E+00  0.00000000E+00  0.00000000E+00
  0.00000000E+00  0.00000000E+00  0.00000000E+00
  0.00000000E+00  0.00000000E+00  0.00000000E+00
  0.00000000E+00  0.00000000E+00  0.00000000E+00
