C N H                                   
   1.00000000000000     
    40.0000000000000000    0.0000000000000000    0.0000000000000000
     0.0000000000000000   40.0000000000000000    0.0000000000000000
     0.0000000000000000    0.0000000000000000   40.0000000000000000
   C    N    H 
     3     2     4
Selective dynamics
Direct
  0.5049714337634793  0.5246452491101463  0.5000009999999975   T   T   T
  0.5252862500783883  0.4965526261439869  0.5000000000000000   T   T   T
  0.5027947167342004  0.4693074124042694  0.5000009999999975   T   T   T
  0.4708338929949065  0.4794791188713707  0.4999990000000025   T   T   T
  0.4730011868693471  0.5131814215738902  0.4999990000000025   T   T   T
  0.4517573758203883  0.5269447306352772  0.4999990000000025   T   T   T
  0.5083777237884471  0.4427374839642699  0.5000009999999975   T   T   T
  0.5523747983843016  0.4959804335065826  0.5000000000000000   T   T   T
  0.5106016215665371  0.5511705237902164  0.5000009999999975   T   T   T
 
  0.00000000E+00  0.00000000E+00  0.00000000E+00
  0.00000000E+00  0.00000000E+00  0.00000000E+00
  0.00000000E+00  0.00000000E+00  0.00000000E+00
  0.00000000E+00  0.00000000E+00  0.00000000E+00
  0.00000000E+00  0.00000000E+00  0.00000000E+00
  0.00000000E+00  0.00000000E+00  0.00000000E+00
  0.00000000E+00  0.00000000E+00  0.00000000E+00
  0.00000000E+00  0.00000000E+00  0.00000000E+00
  0.00000000E+00  0.00000000E+00  0.00000000E+00
