C O H                                   
   1.00000000000000     
    40.0000000000000000    0.0000000000000000    0.0000000000000000
     0.0000000000000000   40.0000000000000000    0.0000000000000000
     0.0000000000000000    0.0000000000000000   40.0000000000000000
   C    O    H 
     8     1     8
Selective dynamics
Direct
  0.5103761506472182  0.4765794267033883  0.4999943471738817   T   T   T
  0.5450933600213901  0.4759048101553063  0.5000004592014022   T   T   T
  0.5640271602757778  0.5057076863179120  0.5000030334994321   T   T   T
  0.5465407586042588  0.5364306273769017  0.5000011438013132   T   T   T
  0.5119221218667747  0.5374855838727157  0.4999940175681132   T   T   T
  0.4920839241791555  0.5074970161814747  0.4999955620735648   T   T   T
  0.4561897711558700  0.5094539005949699  0.4999958702035201   T   T   T
  0.4361422222683942  0.4769898649470079  0.5000040363882547   T   T   T
  0.4401663394433655  0.5372887639027226  0.4999941424969023   T   T   T
  0.4094489030417137  0.4832813433099474  0.5000050033275869   T   T   T
  0.4413979499783380  0.4612652681384972  0.5220955539108161   T   T   T
  0.4413932635617996  0.4612556757285446  0.4779182933613697   T   T   T
  0.4985582118706944  0.5612634903555644  0.4999925867553969   T   T   T
  0.5606253880354259  0.5598931224857893  0.5000051771274556   T   T   T
  0.5912845542807403  0.5050396377365374  0.5000117416803391   T   T   T
  0.5579578533875633  0.4517678073999249  0.4999991267077561   T   T   T
  0.4967930673815601  0.4528959747928170  0.4999889047228976   T   T   T
 
  0.00000000E+00  0.00000000E+00  0.00000000E+00
  0.00000000E+00  0.00000000E+00  0.00000000E+00
  0.00000000E+00  0.00000000E+00  0.00000000E+00
  0.00000000E+00  0.00000000E+00  0.00000000E+00
  0.00000000E+00  0.00000000E+00  0.00000000E+00
  0.00000000E+00  0.00000000E+00  0.00000000E+00
  0.00000000E+00  0.00000000E+00  0.00000000E+00
  0.00000000E+00  0.00000000E+00  0.00000000E+00
  0.00000000E+00  0.00000000E+00  0.00000000E+00
  0.00000000E+00  0.00000000E+00  0.00000000E+00
  0.00000000E+00  0.00000000E+00  0.00000000E+00
  0.00000000E+00  0.00000000E+00  0.00000000E+00
  0.00000000E+00  0.00000000E+00  0.00000000E+00
  0.00000000E+00  0.00000000E+00  0.00000000E+00
  0.00000000E+00  0.00000000E+00  0.00000000E+00
  0.00000000E+00  0.00000000E+00  0.00000000E+00
  0.00000000E+00  0.00000000E+00  0.00000000E+00
