C H                                     
   1.00000000000000     
    40.0000000000000000    0.0000000000000000    0.0000000000000000
     0.0000000000000000   40.0000000000000000    0.0000000000000000
     0.0000000000000000    0.0000000000000000   40.0000000000000000
   C    H 
     6     6
Selective dynamics
Direct
  0.4683762132473532  0.5163631625728016  0.5000000000000000   T   T   T
  0.4991398458258303  0.5346167128908021  0.5000000000000000   T   T   T
  0.5307712622923901  0.5179496454102122  0.5000000000000000   T   T   T
  0.5316237867526468  0.4836368374271984  0.5000000000000000   T   T   T
  0.5008601541741697  0.4653832871091979  0.5000000000000000   T   T   T
  0.4692287377076099  0.4820503545897878  0.5000000000000000   T   T   T
  0.4463415597749147  0.4673319248031049  0.5000000000000000   T   T   T
  0.5015547259107791  0.4381213973302351  0.5000000000000000   T   T   T
  0.5552183024041994  0.4700768089694236  0.4999990000000025   T   T   T
  0.5536584402250924  0.5326680751968951  0.5000000000000000   T   T   T
  0.4984452740892280  0.5618786026697649  0.5000000000000000   T   T   T
  0.4447816975958006  0.5299231910305835  0.5000000000000000   T   T   T
 
  0.00000000E+00  0.00000000E+00  0.00000000E+00
  0.00000000E+00  0.00000000E+00  0.00000000E+00
  0.00000000E+00  0.00000000E+00  0.00000000E+00
  0.00000000E+00  0.00000000E+00  0.00000000E+00
  0.00000000E+00  0.00000000E+00  0.00000000E+00
  0.00000000E+00  0.00000000E+00  0.00000000E+00
  0.00000000E+00  0.00000000E+00  0.00000000E+00
  0.00000000E+00  0.00000000E+00  0.00000000E+00
  0.00000000E+00  0.00000000E+00  0.00000000E+00
  0.00000000E+00  0.00000000E+00  0.00000000E+00
  0.00000000E+00  0.00000000E+00  0.00000000E+00
  0.00000000E+00  0.00000000E+00  0.00000000E+00
