C N H                                   
   1.00000000000000     
    40.0000000000000000    0.0000000000000000    0.0000000000000000
     0.0000000000000000   40.0000000000000000    0.0000000000000000
     0.0000000000000000    0.0000000000000000   40.0000000000000000
   C    N    H 
     9     1     7
Selective dynamics
Direct
  0.5293026289327258  0.4680633675549402  0.5000000000000000   T   T   T
  0.5588057767418562  0.4860010484716994  0.5000000000000000   T   T   T
  0.5582037782003226  0.5214511517149845  0.5000000000000000   T   T   T
  0.5281774380209399  0.5385194742137358  0.5000000000000000   T   T   T
  0.4973994879855894  0.5208093089088521  0.5000000000000000   T   T   T
  0.4397115368715205  0.5215964643731823  0.5000000000000000   T   T   T
  0.4376584669133123  0.4862088219312568  0.5000000000000000   T   T   T
  0.4668608910786247  0.4678924674644733  0.5000000000000000   T   T   T
  0.4980134298631853  0.4848866615228857  0.5000000000000000   T   T   T
  0.4681327279676779  0.5386536632825667  0.5000000000000000   T   T   T
  0.4664011932888599  0.4405922736101431  0.5000000000000000   T   T   T
  0.4132232382232246  0.4741293608845467  0.5000000000000000   T   T   T
  0.4166992061191053  0.5363986467807678  0.5000000000000000   T   T   T
  0.5273331813444457  0.5657927804923304  0.5000000000000000   T   T   T
  0.5817153177705734  0.5352802890323503  0.5000000000000000   T   T   T
  0.5827549130289498  0.4729609524287781  0.5000000000000000   T   T   T
  0.5296077876491125  0.4407622673325164  0.5000000000000000   T   T   T
 
  0.00000000E+00  0.00000000E+00  0.00000000E+00
  0.00000000E+00  0.00000000E+00  0.00000000E+00
  0.00000000E+00  0.00000000E+00  0.00000000E+00
  0.00000000E+00  0.00000000E+00  0.00000000E+00
  0.00000000E+00  0.00000000E+00  0.00000000E+00
  0.00000000E+00  0.00000000E+00  0.00000000E+00
  0.00000000E+00  0.00000000E+00  0.00000000E+00
  0.00000000E+00  0.00000000E+00  0.00000000E+00
  0.00000000E+00  0.00000000E+00  0.00000000E+00
  0.00000000E+00  0.00000000E+00  0.00000000E+00
  0.00000000E+00  0.00000000E+00  0.00000000E+00
  0.00000000E+00  0.00000000E+00  0.00000000E+00
  0.00000000E+00  0.00000000E+00  0.00000000E+00
  0.00000000E+00  0.00000000E+00  0.00000000E+00
  0.00000000E+00  0.00000000E+00  0.00000000E+00
  0.00000000E+00  0.00000000E+00  0.00000000E+00
  0.00000000E+00  0.00000000E+00  0.00000000E+00
