C O H                                   
   1.00000000000000     
    40.0000000000000000    0.0000000000000000    0.0000000000000000
     0.0000000000000000   40.0000000000000000    0.0000000000000000
     0.0000000000000000    0.0000000000000000   40.0000000000000000
   C    O    H 
    10     2    10
Selective dynamics
Direct
  0.4934701217237646  0.4571324824377343  0.5020687038729944   T   T   T
  0.4590838578523448  0.4537065766698071  0.5004584006060031   T   T   T
  0.4411450513053737  0.4835425857147864  0.4985129765598107   T   T   T
  0.4571095159832312  0.5153835241786250  0.4983981934852911   T   T   T
  0.4911606121795975  0.5189637112537048  0.4999773112304471   T   T   T
  0.5101883040121644  0.4890402792028966  0.5017179598821599   T   T   T
  0.5460840689090030  0.4885314602176242  0.5028149295183004   T   T   T
  0.5667948410034058  0.5157405193007409  0.5020887570270707   T   T   T
  0.6036703394731104  0.5138214693169610  0.5024521581174225   T   T   T
  0.4015511425373212  0.5230966591489732  0.4948182397501427   T   T   T
  0.4334618394242527  0.5395753399871354  0.4964780099054560   T   T   T
  0.4079729329956840  0.4874008455571757  0.4965520069306704   T   T   T
  0.6130248254490513  0.4880897977416804  0.5032328626584012   T   T   T
  0.6139760945013018  0.5265831313929950  0.4802781770505736   T   T   T
  0.6137246620083791  0.5278207123323950  0.5239857801586773   T   T   T
  0.5560449952067003  0.5408599778719810  0.5010058171177539   T   T   T
  0.5576524747578537  0.4637894837079491  0.5040064303557664   T   T   T
  0.5026254074312647  0.5436119501355620  0.4997447678403243   T   T   T
  0.3894653121063938  0.5286908006374865  0.4708008098939657   T   T   T
  0.3861770720198056  0.5303607708940091  0.5163653278201423   T   T   T
  0.4466852710567460  0.4295094163963234  0.5006233139714112   T   T   T
  0.5089322580632339  0.4347475059034636  0.5036180662472245   T   T   T
 
  0.00000000E+00  0.00000000E+00  0.00000000E+00
  0.00000000E+00  0.00000000E+00  0.00000000E+00
  0.00000000E+00  0.00000000E+00  0.00000000E+00
  0.00000000E+00  0.00000000E+00  0.00000000E+00
  0.00000000E+00  0.00000000E+00  0.00000000E+00
  0.00000000E+00  0.00000000E+00  0.00000000E+00
  0.00000000E+00  0.00000000E+00  0.00000000E+00
  0.00000000E+00  0.00000000E+00  0.00000000E+00
  0.00000000E+00  0.00000000E+00  0.00000000E+00
  0.00000000E+00  0.00000000E+00  0.00000000E+00
  0.00000000E+00  0.00000000E+00  0.00000000E+00
  0.00000000E+00  0.00000000E+00  0.00000000E+00
  0.00000000E+00  0.00000000E+00  0.00000000E+00
  0.00000000E+00  0.00000000E+00  0.00000000E+00
  0.00000000E+00  0.00000000E+00  0.00000000E+00
  0.00000000E+00  0.00000000E+00  0.00000000E+00
  0.00000000E+00  0.00000000E+00  0.00000000E+00
  0.00000000E+00  0.00000000E+00  0.00000000E+00
  0.00000000E+00  0.00000000E+00  0.00000000E+00
  0.00000000E+00  0.00000000E+00  0.00000000E+00
  0.00000000E+00  0.00000000E+00  0.00000000E+00
  0.00000000E+00  0.00000000E+00  0.00000000E+00
