C N H                                   
   1.00000000000000     
    40.0000000000000000    0.0000000000000000    0.0000000000000000
     0.0000000000000000   40.0000000000000000    0.0000000000000000
     0.0000000000000000    0.0000000000000000   40.0000000000000000
   C    N    H 
     6     2     8
Selective dynamics
Direct
  0.4816186806730087  0.5348081141991798  0.5002694444583895   T   T   T
  0.4512777636400997  0.5174641944331526  0.5002747978862274   T   T   T
  0.4512758227458207  0.4825361262676395  0.4997277967666207   T   T   T
  0.4816184700783381  0.4651925194796789  0.4997328292903163   T   T   T
  0.5121727392014463  0.4822627532195085  0.5000995297197619   T   T   T
  0.5121745536043179  0.5177375186193416  0.4999027145627437   T   T   T
  0.5430390531941001  0.4655626157054940  0.4990641749378781   T   T   T
  0.5430401782889902  0.5344373607982575  0.5009327845534628   T   T   T
  0.5608885862296376  0.4761281153816697  0.5138537678425550   T   T   T
  0.5413749847961853  0.4406222805643765  0.5036247932214550   T   T   T
  0.5608899774765632  0.5238692302301402  0.4861448939124315   T   T   T
  0.5413778136276122  0.5593775558214347  0.4963737116742308   T   T   T
  0.4818210988505740  0.4378724403449965  0.4998467553102799   T   T   T
  0.4278033557158452  0.4686800471729597  0.4995831695602817   T   T   T
  0.4278048292888386  0.5313213295673052  0.5004153095526434   T   T   T
  0.4818220925886365  0.5621277981948722  0.5001525267507390   T   T   T
 
  0.00000000E+00  0.00000000E+00  0.00000000E+00
  0.00000000E+00  0.00000000E+00  0.00000000E+00
  0.00000000E+00  0.00000000E+00  0.00000000E+00
  0.00000000E+00  0.00000000E+00  0.00000000E+00
  0.00000000E+00  0.00000000E+00  0.00000000E+00
  0.00000000E+00  0.00000000E+00  0.00000000E+00
  0.00000000E+00  0.00000000E+00  0.00000000E+00
  0.00000000E+00  0.00000000E+00  0.00000000E+00
  0.00000000E+00  0.00000000E+00  0.00000000E+00
  0.00000000E+00  0.00000000E+00  0.00000000E+00
  0.00000000E+00  0.00000000E+00  0.00000000E+00
  0.00000000E+00  0.00000000E+00  0.00000000E+00
  0.00000000E+00  0.00000000E+00  0.00000000E+00
  0.00000000E+00  0.00000000E+00  0.00000000E+00
  0.00000000E+00  0.00000000E+00  0.00000000E+00
  0.00000000E+00  0.00000000E+00  0.00000000E+00
