C N H                                   
   1.00000000000000     
    40.0000000000000000    0.0000000000000000    0.0000000000000000
     0.0000000000000000   40.0000000000000000    0.0000000000000000
     0.0000000000000000    0.0000000000000000   40.0000000000000000
   C    N    H 
     5     1    11
Selective dynamics
Direct
  0.4655282721580889  0.5000021654951254  0.5039265820235954   T   T   T
  0.4842046520599439  0.4684755543849448  0.4926544874203742   T   T   T
  0.5207170038652791  0.4696613092832820  0.5039851922401368   T   T   T
  0.5207176592526395  0.5303381468948416  0.5039883537749432   T   T   T
  0.4842069916220524  0.5315254165092540  0.4926512224257849   T   T   T
  0.5367821502827326  0.5000002896941353  0.4911872907980595   T   T   T
  0.5615074574635841  0.4999994806105690  0.4973969515636938   T   T   T
  0.4721316462821292  0.5541023268312060  0.5027266290376247   T   T   T
  0.4835101168021581  0.5333590888464101  0.4651618468521264   T   T   T
  0.5344766909893508  0.5521771066938967  0.4945160762208403   T   T   T
  0.5213559599650495  0.5315606026024682  0.5318269682227310   T   T   T
  0.5344743231444440  0.4478226728558141  0.4945070213605831   T   T   T
  0.5213598247079645  0.4684340022334581  0.5318234903004040   T   T   T
  0.4721299840984869  0.4459005388795063  0.5027351545556584   T   T   T
  0.4835023110920673  0.4666370627043861  0.4651655237416108   T   T   T
  0.4397656531442991  0.5000020316039340  0.4942708578331363   T   T   T
  0.4636303030697064  0.5000032038767444  0.5314763516286689   T   T   T
 
  0.00000000E+00  0.00000000E+00  0.00000000E+00
  0.00000000E+00  0.00000000E+00  0.00000000E+00
  0.00000000E+00  0.00000000E+00  0.00000000E+00
  0.00000000E+00  0.00000000E+00  0.00000000E+00
  0.00000000E+00  0.00000000E+00  0.00000000E+00
  0.00000000E+00  0.00000000E+00  0.00000000E+00
  0.00000000E+00  0.00000000E+00  0.00000000E+00
  0.00000000E+00  0.00000000E+00  0.00000000E+00
  0.00000000E+00  0.00000000E+00  0.00000000E+00
  0.00000000E+00  0.00000000E+00  0.00000000E+00
  0.00000000E+00  0.00000000E+00  0.00000000E+00
  0.00000000E+00  0.00000000E+00  0.00000000E+00
  0.00000000E+00  0.00000000E+00  0.00000000E+00
  0.00000000E+00  0.00000000E+00  0.00000000E+00
  0.00000000E+00  0.00000000E+00  0.00000000E+00
  0.00000000E+00  0.00000000E+00  0.00000000E+00
  0.00000000E+00  0.00000000E+00  0.00000000E+00
