C O S H                                 
   1.00000000000000     
    40.0000000000000000    0.0000000000000000    0.0000000000000000
     0.0000000000000000   40.0000000000000000    0.0000000000000000
     0.0000000000000000    0.0000000000000000   40.0000000000000000
   C    O    S    H 
     7     1     1     8
Selective dynamics
Direct
  0.5514833575540337  0.5015795152130096  0.4969287251295427   T   T   T
  0.5364144198436804  0.5338289054214229  0.4983779885814741   T   T   T
  0.5023185716051017  0.5365418666811053  0.5008680831468695   T   T   T
  0.4820996859343651  0.5072062591141702  0.5018213524022599   T   T   T
  0.4969586881645967  0.4749626111161760  0.5009693338529999   T   T   T
  0.5311711813814668  0.4723235961415853  0.4986098822326070   T   T   T
  0.4261972760780353  0.4846304461361299  0.5036686997447219   T   T   T
  0.4493258179929072  0.5126650535292043  0.5034349585969551   T   T   T
  0.5937316097509111  0.4957377099084965  0.4930046177281540   T   T   T
  0.5428280180376248  0.4477086500465433  0.4978872464168589   T   T   T
  0.4817003254398458  0.4524965716046196  0.5021696746104567   T   T   T
  0.4013669061192644  0.4959652038083533  0.5045824119492650   T   T   T
  0.4291953237423130  0.4698690917049504  0.4807471131425345   T   T   T
  0.4304957468894628  0.4691175869919064  0.5258743997471313   T   T   T
  0.4901120998077957  0.5608570028617024  0.5020159685226560   T   T   T
  0.5519207177764471  0.5561862356573855  0.4975271246455790   T   T   T
  0.6026782538821180  0.5283246940632509  0.4915104195499538   T   T   T
 
  0.00000000E+00  0.00000000E+00  0.00000000E+00
  0.00000000E+00  0.00000000E+00  0.00000000E+00
  0.00000000E+00  0.00000000E+00  0.00000000E+00
  0.00000000E+00  0.00000000E+00  0.00000000E+00
  0.00000000E+00  0.00000000E+00  0.00000000E+00
  0.00000000E+00  0.00000000E+00  0.00000000E+00
  0.00000000E+00  0.00000000E+00  0.00000000E+00
  0.00000000E+00  0.00000000E+00  0.00000000E+00
  0.00000000E+00  0.00000000E+00  0.00000000E+00
  0.00000000E+00  0.00000000E+00  0.00000000E+00
  0.00000000E+00  0.00000000E+00  0.00000000E+00
  0.00000000E+00  0.00000000E+00  0.00000000E+00
  0.00000000E+00  0.00000000E+00  0.00000000E+00
  0.00000000E+00  0.00000000E+00  0.00000000E+00
  0.00000000E+00  0.00000000E+00  0.00000000E+00
  0.00000000E+00  0.00000000E+00  0.00000000E+00
  0.00000000E+00  0.00000000E+00  0.00000000E+00
