C N H                                   
   1.00000000000000     
    40.0000000000000000    0.0000000000000000    0.0000000000000000
     0.0000000000000000   40.0000000000000000    0.0000000000000000
     0.0000000000000000    0.0000000000000000   40.0000000000000000
   C    N    H 
    12     1    11
Selective dynamics
Direct
  0.4412902466076523  0.4688305992388145  0.5108197456517671   T   T   T
  0.4094892910866402  0.4824713047776899  0.5103600697006946   T   T   T
  0.4044525927786174  0.5149740816209980  0.4980809620390333   T   T   T
  0.4315329168869513  0.5338166742649403  0.4861284382984714   T   T   T
  0.4636257236649140  0.5207778032291049  0.4867206284187922   T   T   T
  0.4687603029557639  0.4881481695091175  0.4995006579013724   T   T   T
  0.5312396970442360  0.4881481695091175  0.5004983420986229   T   T   T
  0.5363742763350858  0.5207778032291049  0.5132783715812105   T   T   T
  0.5684670831130487  0.5338166742649403  0.5138715617015286   T   T   T
  0.5955474072213826  0.5149730816210005  0.5019190379609668   T   T   T
  0.5905107089133599  0.4824703047776853  0.4896409302993096   T   T   T
  0.5587097533923476  0.4688295992388170  0.4891812543482304   T   T   T
  0.5000000000000000  0.4734286682589982  0.5000000000000000   T   T   T
  0.5544878272927082  0.4437221040954257  0.4794256324456740   T   T   T
  0.6116067849162490  0.4679069341627221  0.4804627204770158   T   T   T
  0.6206922922455289  0.5254257566126460  0.5027052019443403   T   T   T
  0.5726623241925162  0.5585933394646070  0.5243578555028352   T   T   T
  0.5156059922202703  0.5346692834844888  0.5240572490596891   T   T   T
  0.5000000000000000  0.4479002308198765  0.5000000000000000   T   T   T
  0.4843940077797297  0.5346692834844888  0.4759417509403066   T   T   T
  0.4273376758074835  0.5585933394646070  0.4756421444971649   T   T   T
  0.3793077077544712  0.5254267566126435  0.4972957980556574   T   T   T
  0.3883932150837509  0.4679079341627266  0.5195382795229815   T   T   T
  0.4455121727072915  0.4437221040954257  0.5205743675543189   T   T   T
 
  0.00000000E+00  0.00000000E+00  0.00000000E+00
  0.00000000E+00  0.00000000E+00  0.00000000E+00
  0.00000000E+00  0.00000000E+00  0.00000000E+00
  0.00000000E+00  0.00000000E+00  0.00000000E+00
  0.00000000E+00  0.00000000E+00  0.00000000E+00
  0.00000000E+00  0.00000000E+00  0.00000000E+00
  0.00000000E+00  0.00000000E+00  0.00000000E+00
  0.00000000E+00  0.00000000E+00  0.00000000E+00
  0.00000000E+00  0.00000000E+00  0.00000000E+00
  0.00000000E+00  0.00000000E+00  0.00000000E+00
  0.00000000E+00  0.00000000E+00  0.00000000E+00
  0.00000000E+00  0.00000000E+00  0.00000000E+00
  0.00000000E+00  0.00000000E+00  0.00000000E+00
  0.00000000E+00  0.00000000E+00  0.00000000E+00
  0.00000000E+00  0.00000000E+00  0.00000000E+00
  0.00000000E+00  0.00000000E+00  0.00000000E+00
  0.00000000E+00  0.00000000E+00  0.00000000E+00
  0.00000000E+00  0.00000000E+00  0.00000000E+00
  0.00000000E+00  0.00000000E+00  0.00000000E+00
  0.00000000E+00  0.00000000E+00  0.00000000E+00
  0.00000000E+00  0.00000000E+00  0.00000000E+00
  0.00000000E+00  0.00000000E+00  0.00000000E+00
  0.00000000E+00  0.00000000E+00  0.00000000E+00
  0.00000000E+00  0.00000000E+00  0.00000000E+00
