C F O H                                 
   1.00000000000000     
    40.0000000000000000    0.0000000000000000    0.0000000000000000
     0.0000000000000000   40.0000000000000000    0.0000000000000000
     0.0000000000000000    0.0000000000000000   40.0000000000000000
   C    F    O    H 
     8     1     1     7
Selective dynamics
Direct
  0.5100715248256580  0.5233471636813039  0.5000053718838027   T   T   T
  0.5446892792175541  0.5239455557837747  0.5000088677886162   T   T   T
  0.5619802726372183  0.4937256866894046  0.5000063311619616   T   T   T
  0.5457038596793795  0.4629727340940372  0.5000013517651111   T   T   T
  0.5111196009248217  0.4624412269205543  0.4999993211643197   T   T   T
  0.4917007549096712  0.4926029564464187  0.4999996073970375   T   T   T
  0.4560207156675095  0.4911208760099318  0.4999940483985271   T   T   T
  0.4362140425922002  0.5234879798629005  0.4999938187174673   T   T   T
  0.5966757133800571  0.4943260728714349  0.5000058938754248   T   T   T
  0.4399258047659866  0.4632070509133512  0.4999927763819458   T   T   T
  0.4414831000006414  0.5390855974154187  0.5219482566893192   T   T   T
  0.4414904620117584  0.5390911442291925  0.4780449933594260   T   T   T
  0.4096090359035393  0.5175063340957160  0.4999889414244141   T   T   T
  0.4979399310542116  0.4387674589167109  0.4999958606123033   T   T   T
  0.5601734542887874  0.4400191157822580  0.5000011038994959   T   T   T
  0.5583977218377691  0.5473571772384570  0.5000105790040821   T   T   T
  0.4968047263032364  0.5469958690491635  0.5000038764767513   T   T   T
 
  0.00000000E+00  0.00000000E+00  0.00000000E+00
  0.00000000E+00  0.00000000E+00  0.00000000E+00
  0.00000000E+00  0.00000000E+00  0.00000000E+00
  0.00000000E+00  0.00000000E+00  0.00000000E+00
  0.00000000E+00  0.00000000E+00  0.00000000E+00
  0.00000000E+00  0.00000000E+00  0.00000000E+00
  0.00000000E+00  0.00000000E+00  0.00000000E+00
  0.00000000E+00  0.00000000E+00  0.00000000E+00
  0.00000000E+00  0.00000000E+00  0.00000000E+00
  0.00000000E+00  0.00000000E+00  0.00000000E+00
  0.00000000E+00  0.00000000E+00  0.00000000E+00
  0.00000000E+00  0.00000000E+00  0.00000000E+00
  0.00000000E+00  0.00000000E+00  0.00000000E+00
  0.00000000E+00  0.00000000E+00  0.00000000E+00
  0.00000000E+00  0.00000000E+00  0.00000000E+00
  0.00000000E+00  0.00000000E+00  0.00000000E+00
  0.00000000E+00  0.00000000E+00  0.00000000E+00
