C O H                                   
   1.00000000000000     
    40.0000000000000000    0.0000000000000000    0.0000000000000000
     0.0000000000000000   40.0000000000000000    0.0000000000000000
     0.0000000000000000    0.0000000000000000   40.0000000000000000
   C    O    H 
    10     1    12
Selective dynamics
Direct
  0.4723137664924886  0.4904272863226589  0.4993471273451462   T   T   T
  0.4405641336988612  0.5050726401094544  0.5001346813458913   T   T   T
  0.4380285163858506  0.5394022287087838  0.5005784407520468   T   T   T
  0.4667760745301033  0.5600910655829687  0.5002332240883414   T   T   T
  0.4979579222910928  0.5461440424670180  0.4995891330352527   T   T   T
  0.5022439469953947  0.5109685017380959  0.4990535158884843   T   T   T
  0.5339057823919494  0.4951432804144735  0.4980048619504652   T   T   T
  0.5640794283219460  0.5111885253527706  0.5010675772775462   T   T   T
  0.5965516164618569  0.4940263927150991  0.4999403686995686   T   T   T
  0.4495234364761115  0.4350624402456799  0.5002731429493544   T   T   T
  0.4775990900886952  0.4577814962906651  0.4992422019862310   T   T   T
  0.5943047341863725  0.4675857353676047  0.4939436502153512   T   T   T
  0.6130431930754418  0.5063059283606128  0.4818659691250572   T   T   T
  0.6092176820457125  0.4967493466082170  0.5241165994066829   T   T   T
  0.5646915601377784  0.5380020683145573  0.5051898859134952   T   T   T
  0.5341602315296781  0.4682000456537543  0.4950154514176653   T   T   T
  0.5197222515276124  0.5621580520173828  0.4988970608795761   T   T   T
  0.4638326248139734  0.5869736476969839  0.5003310342476870   T   T   T
  0.4135044816304146  0.5508428008892000  0.5011863381493732   T   T   T
  0.4183190939209941  0.4897870906451133  0.5004245802172491   T   T   T
  0.4337480074612239  0.4388217325500802  0.4783844715987921   T   T   T
  0.4353992664559960  0.4389682659631762  0.5232393842812983   T   T   T
  0.4605111590804217  0.4102983859856682  0.4999402992294539   T   T   T
 
  0.00000000E+00  0.00000000E+00  0.00000000E+00
  0.00000000E+00  0.00000000E+00  0.00000000E+00
  0.00000000E+00  0.00000000E+00  0.00000000E+00
  0.00000000E+00  0.00000000E+00  0.00000000E+00
  0.00000000E+00  0.00000000E+00  0.00000000E+00
  0.00000000E+00  0.00000000E+00  0.00000000E+00
  0.00000000E+00  0.00000000E+00  0.00000000E+00
  0.00000000E+00  0.00000000E+00  0.00000000E+00
  0.00000000E+00  0.00000000E+00  0.00000000E+00
  0.00000000E+00  0.00000000E+00  0.00000000E+00
  0.00000000E+00  0.00000000E+00  0.00000000E+00
  0.00000000E+00  0.00000000E+00  0.00000000E+00
  0.00000000E+00  0.00000000E+00  0.00000000E+00
  0.00000000E+00  0.00000000E+00  0.00000000E+00
  0.00000000E+00  0.00000000E+00  0.00000000E+00
  0.00000000E+00  0.00000000E+00  0.00000000E+00
  0.00000000E+00  0.00000000E+00  0.00000000E+00
  0.00000000E+00  0.00000000E+00  0.00000000E+00
  0.00000000E+00  0.00000000E+00  0.00000000E+00
  0.00000000E+00  0.00000000E+00  0.00000000E+00
  0.00000000E+00  0.00000000E+00  0.00000000E+00
  0.00000000E+00  0.00000000E+00  0.00000000E+00
  0.00000000E+00  0.00000000E+00  0.00000000E+00
