C O H                                   
   1.00000000000000     
    40.0000000000000000    0.0000000000000000    0.0000000000000000
     0.0000000000000000   40.0000000000000000    0.0000000000000000
     0.0000000000000000    0.0000000000000000   40.0000000000000000
   C    O    H 
     9     1    10
Selective dynamics
Direct
  0.5067390607010742  0.5240337900328377  0.4997887829794128   T   T   T
  0.4720223320050050  0.5244334136620080  0.4996496702019165   T   T   T
  0.4537052214183758  0.4947055199335175  0.4997007925120356   T   T   T
  0.4712618449410705  0.4644115586701020  0.4997954566658577   T   T   T
  0.5058289699372814  0.4638573744135107  0.4999370069940092   T   T   T
  0.5241635792595923  0.4936971313433154  0.4999473501136933   T   T   T
  0.5613078312677925  0.4919228369923574  0.5000157057839468   T   T   T
  0.5809036224305324  0.5241502062229503  0.5000733220130634   T   T   T
  0.4162380594420516  0.4950067896672479  0.5002113937104619   T   T   T
  0.5757934336880851  0.4648589797491213  0.5000443701312374   T   T   T
  0.6074977649011811  0.5184655757355925  0.5002011161525738   T   T   T
  0.5746449127031495  0.5392300406185522  0.5219903181508353   T   T   T
  0.5748572000668503  0.5391638882614580  0.4780510800321625   T   T   T
  0.5193626846154245  0.4403945134993031  0.4999238006025474   T   T   T
  0.4574106356858675  0.4410767896194122  0.4996564151813140   T   T   T
  0.4070087101583296  0.4918295609438537  0.5257831123928765   T   T   T
  0.4062403764983510  0.5185346329792901  0.4907422899073375   T   T   T
  0.4059752708461837  0.4745117445280481  0.4854059989494891   T   T   T
  0.4588687758442622  0.5481545275232852  0.4994149513581517   T   T   T
  0.5201697135895463  0.5475621256042338  0.4996690661670936   T   T   T
 
  0.00000000E+00  0.00000000E+00  0.00000000E+00
  0.00000000E+00  0.00000000E+00  0.00000000E+00
  0.00000000E+00  0.00000000E+00  0.00000000E+00
  0.00000000E+00  0.00000000E+00  0.00000000E+00
  0.00000000E+00  0.00000000E+00  0.00000000E+00
  0.00000000E+00  0.00000000E+00  0.00000000E+00
  0.00000000E+00  0.00000000E+00  0.00000000E+00
  0.00000000E+00  0.00000000E+00  0.00000000E+00
  0.00000000E+00  0.00000000E+00  0.00000000E+00
  0.00000000E+00  0.00000000E+00  0.00000000E+00
  0.00000000E+00  0.00000000E+00  0.00000000E+00
  0.00000000E+00  0.00000000E+00  0.00000000E+00
  0.00000000E+00  0.00000000E+00  0.00000000E+00
  0.00000000E+00  0.00000000E+00  0.00000000E+00
  0.00000000E+00  0.00000000E+00  0.00000000E+00
  0.00000000E+00  0.00000000E+00  0.00000000E+00
  0.00000000E+00  0.00000000E+00  0.00000000E+00
  0.00000000E+00  0.00000000E+00  0.00000000E+00
  0.00000000E+00  0.00000000E+00  0.00000000E+00
  0.00000000E+00  0.00000000E+00  0.00000000E+00
