C O S H                                 
   1.00000000000000     
    40.0000000000000000    0.0000000000000000    0.0000000000000000
     0.0000000000000000   40.0000000000000000    0.0000000000000000
     0.0000000000000000    0.0000000000000000   40.0000000000000000
   C    O    S    H 
     7     1     1     8
Selective dynamics
Direct
  0.5511995871972795  0.5016166238865031  0.4969448934217061   T   T   T
  0.5361997168052158  0.5337585807189748  0.4983545970188283   T   T   T
  0.5022833200808906  0.5363809299295225  0.5008011173731181   T   T   T
  0.4822016015433613  0.5071146175663659  0.5017850767287066   T   T   T
  0.4969474643695533  0.4749688578153967  0.5009243050032196   T   T   T
  0.5309954762221821  0.4724193578648166  0.4985742415182403   T   T   T
  0.4265293899913409  0.4846525277939621  0.5037048267525341   T   T   T
  0.4496439885816798  0.5125788560039996  0.5034518325475921   T   T   T
  0.5932195716193756  0.4958236284318405  0.4931183726553519   T   T   T
  0.5427304664446656  0.4480278398128918  0.4978152633147575   T   T   T
  0.4817781541158987  0.4526370180204898  0.5020407773723875   T   T   T
  0.4019505040054143  0.4960513920321692  0.5046142863397074   T   T   T
  0.4295899934055557  0.4700591577818376  0.4809234816267612   T   T   T
  0.4308932961661368  0.4693384161904438  0.5257934253263783   T   T   T
  0.4900033234537112  0.5604702888688925  0.5018670781863557   T   T   T
  0.5516121151390674  0.5559634300313342  0.4974165473469637   T   T   T
  0.6022200308586412  0.5281394772505714  0.4918678774674116   T   T   T
 
  0.00000000E+00  0.00000000E+00  0.00000000E+00
  0.00000000E+00  0.00000000E+00  0.00000000E+00
  0.00000000E+00  0.00000000E+00  0.00000000E+00
  0.00000000E+00  0.00000000E+00  0.00000000E+00
  0.00000000E+00  0.00000000E+00  0.00000000E+00
  0.00000000E+00  0.00000000E+00  0.00000000E+00
  0.00000000E+00  0.00000000E+00  0.00000000E+00
  0.00000000E+00  0.00000000E+00  0.00000000E+00
  0.00000000E+00  0.00000000E+00  0.00000000E+00
  0.00000000E+00  0.00000000E+00  0.00000000E+00
  0.00000000E+00  0.00000000E+00  0.00000000E+00
  0.00000000E+00  0.00000000E+00  0.00000000E+00
  0.00000000E+00  0.00000000E+00  0.00000000E+00
  0.00000000E+00  0.00000000E+00  0.00000000E+00
  0.00000000E+00  0.00000000E+00  0.00000000E+00
  0.00000000E+00  0.00000000E+00  0.00000000E+00
  0.00000000E+00  0.00000000E+00  0.00000000E+00
