!PBE0 def2-SV(p) Opt Freq d3 TightSCF SlowConv RIJCOSX defgrid2
 
%pal
nprocs 4
end
 
%scf
MaxIter 1500
end
 
%maxcore 3000
 

 
* xyz 1 2
C     1.7147273    1.0599142   -0.0355873 
C     0.5699729    1.8177932    0.0014404 
C    -0.6845057    1.2132328    0.0155998 
C    -0.7996957   -0.2046253   -0.0073131 
C     0.3551128   -0.9763087   -0.0398411 
C     1.6203803   -0.3736738   -0.0574068 
N     2.7350288   -1.1041732   -0.0972124 
H     2.6869770   -2.1151929   -0.1132655 
H     3.6469114   -0.6642079   -0.1143493 
H     0.2542556   -2.0497770   -0.0539478 
O    -1.9548355   -0.8614354    0.0014357 
C    -3.1924881   -0.1723372    0.0129398 
H    -3.9529550   -0.9506151    0.0119418 
H    -3.3081108    0.4488280   -0.8783833 
H    -3.3000148    0.4378848    0.9127355 
H    -1.5682047    1.8308233    0.0458602 
H     0.6350090    2.8942980    0.0191262 
H     2.6870875    1.5274598   -0.0486195
*
