C O H                                   
   1.00000000000000     
    40.0000000000000000    0.0000000000000000    0.0000000000000000
     0.0000000000000000   40.0000000000000000    0.0000000000000000
     0.0000000000000000    0.0000000000000000   40.0000000000000000
   C    O    H 
     9     1     8
Selective dynamics
Direct
  0.4885230533639913  0.4767991622084295  0.4999825160532012   T   T   T
  0.4738138947238539  0.5092597754279851  0.4999907298543249   T   T   T
  0.4941206395116922  0.5386801007470510  0.4999946541577884   T   T   T
  0.5282192745456058  0.5357385294873183  0.4999919099434180   T   T   T
  0.5433498287946179  0.5033351473165695  0.4999906542452237   T   T   T
  0.5227134361522161  0.4740643040059140  0.4999824634634749   T   T   T
  0.5780552008377882  0.5001010966797352  0.5000023332781680   T   T   T
  0.6085036744226855  0.4972806515481096  0.5000143405554383   T   T   T
  0.4176355182250475  0.4872134468319231  0.5000114831227478   T   T   T
  0.4412369582336737  0.5148669668182748  0.5000056543875502   T   T   T
  0.5346147622043844  0.4495808135763042  0.4999819988784111   T   T   T
  0.6352135570810802  0.4947859351182089  0.5000279607526465   T   T   T
  0.5441633971710900  0.5577914912721695  0.5000005661190841   T   T   T
  0.4817032123773046  0.5629136039480187  0.5000019921028738   T   T   T
  0.3930255370901747  0.4989932977157920  0.5000185490708020   T   T   T
  0.4210434940672627  0.4720654104159010  0.4773999398458812   T   T   T
  0.4210553386514491  0.4720617846893518  0.5226195751159679   T   T   T
  0.4730082225460848  0.4544684821929152  0.4999826790529767   T   T   T
 
  0.00000000E+00  0.00000000E+00  0.00000000E+00
  0.00000000E+00  0.00000000E+00  0.00000000E+00
  0.00000000E+00  0.00000000E+00  0.00000000E+00
  0.00000000E+00  0.00000000E+00  0.00000000E+00
  0.00000000E+00  0.00000000E+00  0.00000000E+00
  0.00000000E+00  0.00000000E+00  0.00000000E+00
  0.00000000E+00  0.00000000E+00  0.00000000E+00
  0.00000000E+00  0.00000000E+00  0.00000000E+00
  0.00000000E+00  0.00000000E+00  0.00000000E+00
  0.00000000E+00  0.00000000E+00  0.00000000E+00
  0.00000000E+00  0.00000000E+00  0.00000000E+00
  0.00000000E+00  0.00000000E+00  0.00000000E+00
  0.00000000E+00  0.00000000E+00  0.00000000E+00
  0.00000000E+00  0.00000000E+00  0.00000000E+00
  0.00000000E+00  0.00000000E+00  0.00000000E+00
  0.00000000E+00  0.00000000E+00  0.00000000E+00
  0.00000000E+00  0.00000000E+00  0.00000000E+00
  0.00000000E+00  0.00000000E+00  0.00000000E+00
