C H                                     
   1.00000000000000     
    40.0000000000000000    0.0000000000000000    0.0000000000000000
     0.0000000000000000   40.0000000000000000    0.0000000000000000
     0.0000000000000000    0.0000000000000000   40.0000000000000000
   C    H 
    12    14
Selective dynamics
Direct
  0.5480311463817813  0.4696077659019906  0.4919701535126819   T   T   T
  0.5829122170956111  0.4700709348476764  0.4923898962975528   T   T   T
  0.6001269186859304  0.4993073376545283  0.5010317730658258   T   T   T
  0.5819402698264682  0.5280325131173811  0.5091162728675442   T   T   T
  0.5470055790868216  0.5275408394599808  0.5086442355814427   T   T   T
  0.5292389675366067  0.4982244255892212  0.5004233281840840   T   T   T
  0.4921696064492380  0.4978966412425336  0.5004827414070263   T   T   T
  0.4747645647208998  0.4697609449057865  0.5073342376404284   T   T   T
  0.4372814216275245  0.4674888790652147  0.5081658990341680   T   T   T
  0.4203597465601305  0.5018652146054308  0.5083222062474491   T   T   T
  0.4375633959170813  0.5252647860328779  0.4834149897381863   T   T   T
  0.4743031574943615  0.5304848384863945  0.4929188704846297   T   T   T
  0.4876521166489667  0.5436970654466506  0.4727515113271963   T   T   T
  0.4758622920914561  0.5471537189859745  0.5149099825219778   T   T   T
  0.4246916691658598  0.5495403541265915  0.4822347328280117   T   T   T
  0.4361700926900554  0.5143031218556473  0.4581424730793842   T   T   T
  0.3935822343369608  0.4993440882905844  0.5026072397434334   T   T   T
  0.4221269229996807  0.5127825941079109  0.5335901307375579   T   T   T
  0.4287866356307504  0.4528472252707232  0.4862673910868693   T   T   T
  0.4294594277143631  0.4526615697985150  0.5300530865979951   T   T   T
  0.4883794710912213  0.4467434211833847  0.5130806771713736   T   T   T
  0.5333831138122704  0.5502423853063689  0.5151683942311962   T   T   T
  0.5949883594281005  0.5510490667893180  0.5158036123084742   T   T   T
  0.6273918670107008  0.4997015763119848  0.5012060405681922   T   T   T
  0.5967579874108040  0.4475749341085447  0.4855478549688073   T   T   T
  0.5350688185863817  0.4468127575087948  0.4844222687685047   T   T   T
 
  0.00000000E+00  0.00000000E+00  0.00000000E+00
  0.00000000E+00  0.00000000E+00  0.00000000E+00
  0.00000000E+00  0.00000000E+00  0.00000000E+00
  0.00000000E+00  0.00000000E+00  0.00000000E+00
  0.00000000E+00  0.00000000E+00  0.00000000E+00
  0.00000000E+00  0.00000000E+00  0.00000000E+00
  0.00000000E+00  0.00000000E+00  0.00000000E+00
  0.00000000E+00  0.00000000E+00  0.00000000E+00
  0.00000000E+00  0.00000000E+00  0.00000000E+00
  0.00000000E+00  0.00000000E+00  0.00000000E+00
  0.00000000E+00  0.00000000E+00  0.00000000E+00
  0.00000000E+00  0.00000000E+00  0.00000000E+00
  0.00000000E+00  0.00000000E+00  0.00000000E+00
  0.00000000E+00  0.00000000E+00  0.00000000E+00
  0.00000000E+00  0.00000000E+00  0.00000000E+00
  0.00000000E+00  0.00000000E+00  0.00000000E+00
  0.00000000E+00  0.00000000E+00  0.00000000E+00
  0.00000000E+00  0.00000000E+00  0.00000000E+00
  0.00000000E+00  0.00000000E+00  0.00000000E+00
  0.00000000E+00  0.00000000E+00  0.00000000E+00
  0.00000000E+00  0.00000000E+00  0.00000000E+00
  0.00000000E+00  0.00000000E+00  0.00000000E+00
  0.00000000E+00  0.00000000E+00  0.00000000E+00
  0.00000000E+00  0.00000000E+00  0.00000000E+00
  0.00000000E+00  0.00000000E+00  0.00000000E+00
  0.00000000E+00  0.00000000E+00  0.00000000E+00
