C O H                                   
   1.00000000000000     
    40.0000000000000000    0.0000000000000000    0.0000000000000000
     0.0000000000000000   40.0000000000000000    0.0000000000000000
     0.0000000000000000    0.0000000000000000   40.0000000000000000
   C    O    H 
    14     1    12
Selective dynamics
Direct
  0.4568004697774848  0.5348805236849299  0.4957037740358914   T   T   T
  0.4375393104768988  0.5052039763434518  0.4999140681285005   T   T   T
  0.4560488551715777  0.4750044885416344  0.5035311344884282   T   T   T
  0.4904470168357216  0.4745693824771486  0.5028437207557683   T   T   T
  0.5096944925342134  0.5042210748355231  0.4990157041845952   T   T   T
  0.4911083649469743  0.5343726357882708  0.4955182551092116   T   T   T
  0.5459103305613596  0.5038636950769896  0.4987338081578065   T   T   T
  0.5643977284636884  0.4745265694527344  0.4914037738737607   T   T   T
  0.5990335380754065  0.4743757390350400  0.4911677815001734   T   T   T
  0.6172261779966109  0.5033346220985827  0.4983119127320753   T   T   T
  0.5995903732778239  0.5325804471275524  0.5056432846861150   T   T   T
  0.5649649477512795  0.5329209837268225  0.5058094422933435   T   T   T
  0.4017119516118456  0.5067786393137006  0.5003325247077692   T   T   T
  0.3821390330135531  0.4745642235855769  0.5053502174194604   T   T   T
  0.3856713286870949  0.5337990417221218  0.4968453340611617   T   T   T
  0.5043936649901098  0.5577174831365336  0.4915471440829895   T   T   T
  0.5521853261901639  0.5558941981956469  0.5124621927555335   T   T   T
  0.6131001411236989  0.5553498171200301  0.5116685169570360   T   T   T
  0.6443181260587568  0.5031216872126644  0.4981967609902976   T   T   T
  0.6121461203682972  0.4514011371576414  0.4850148690806762   T   T   T
  0.5511762697239871  0.4517507945621825  0.4849338645019813   T   T   T
  0.5031569232491474  0.4508598414000194  0.5064511010692896   T   T   T
  0.4428161851647453  0.4516100188130858  0.5072653425480820   T   T   T
  0.3555507240763773  0.4804212586564071  0.5046270697071465   T   T   T
  0.3876390542369268  0.4559781500747530  0.4860027437263367   T   T   T
  0.3879225848519894  0.4627393903836343  0.5293833042357782   T   T   T
  0.4433109607842814  0.5581611804773327  0.4923233542107908   T   T   T
 
  0.00000000E+00  0.00000000E+00  0.00000000E+00
  0.00000000E+00  0.00000000E+00  0.00000000E+00
  0.00000000E+00  0.00000000E+00  0.00000000E+00
  0.00000000E+00  0.00000000E+00  0.00000000E+00
  0.00000000E+00  0.00000000E+00  0.00000000E+00
  0.00000000E+00  0.00000000E+00  0.00000000E+00
  0.00000000E+00  0.00000000E+00  0.00000000E+00
  0.00000000E+00  0.00000000E+00  0.00000000E+00
  0.00000000E+00  0.00000000E+00  0.00000000E+00
  0.00000000E+00  0.00000000E+00  0.00000000E+00
  0.00000000E+00  0.00000000E+00  0.00000000E+00
  0.00000000E+00  0.00000000E+00  0.00000000E+00
  0.00000000E+00  0.00000000E+00  0.00000000E+00
  0.00000000E+00  0.00000000E+00  0.00000000E+00
  0.00000000E+00  0.00000000E+00  0.00000000E+00
  0.00000000E+00  0.00000000E+00  0.00000000E+00
  0.00000000E+00  0.00000000E+00  0.00000000E+00
  0.00000000E+00  0.00000000E+00  0.00000000E+00
  0.00000000E+00  0.00000000E+00  0.00000000E+00
  0.00000000E+00  0.00000000E+00  0.00000000E+00
  0.00000000E+00  0.00000000E+00  0.00000000E+00
  0.00000000E+00  0.00000000E+00  0.00000000E+00
  0.00000000E+00  0.00000000E+00  0.00000000E+00
  0.00000000E+00  0.00000000E+00  0.00000000E+00
  0.00000000E+00  0.00000000E+00  0.00000000E+00
  0.00000000E+00  0.00000000E+00  0.00000000E+00
  0.00000000E+00  0.00000000E+00  0.00000000E+00
