C H                                     
   1.00000000000000     
    40.0000000000000000    0.0000000000000000    0.0000000000000000
     0.0000000000000000   40.0000000000000000    0.0000000000000000
     0.0000000000000000    0.0000000000000000   40.0000000000000000
   C    H 
     6     6
Selective dynamics
Direct
  0.4692775451754067  0.5167280353573176  0.5000000000000000   T   T   T
  0.4991242613374753  0.5349731986727106  0.5000000000000000   T   T   T
  0.5298457132907144  0.5182414272984629  0.5000000000000000   T   T   T
  0.5307224548245933  0.4832719646426825  0.5000000000000000   T   T   T
  0.5008757386625249  0.4650268013272893  0.5000000000000000   T   T   T
  0.4701542867092856  0.4817585727015372  0.5000000000000000   T   T   T
  0.4468794117796372  0.4675301148538821  0.5000000000000000   T   T   T
  0.5015599584754646  0.4377622807643756  0.5000000000000000   T   T   T
  0.5546792191579559  0.4702326994921313  0.4999990000000025   T   T   T
  0.5531205882203629  0.5324698851461179  0.5000000000000000   T   T   T
  0.4984400415245354  0.5622377192356245  0.5000000000000000   T   T   T
  0.4453207808420441  0.5297673005078758  0.5000000000000000   T   T   T
 
  0.00000000E+00  0.00000000E+00  0.00000000E+00
  0.00000000E+00  0.00000000E+00  0.00000000E+00
  0.00000000E+00  0.00000000E+00  0.00000000E+00
  0.00000000E+00  0.00000000E+00  0.00000000E+00
  0.00000000E+00  0.00000000E+00  0.00000000E+00
  0.00000000E+00  0.00000000E+00  0.00000000E+00
  0.00000000E+00  0.00000000E+00  0.00000000E+00
  0.00000000E+00  0.00000000E+00  0.00000000E+00
  0.00000000E+00  0.00000000E+00  0.00000000E+00
  0.00000000E+00  0.00000000E+00  0.00000000E+00
  0.00000000E+00  0.00000000E+00  0.00000000E+00
  0.00000000E+00  0.00000000E+00  0.00000000E+00
