!r2SCANh freq aug-cc-pVTZ d3 TightSCF SlowConv RIJCOSX defgrid2

%pal
nprocs 12
end

%scf
MaxIter 1500
end

%maxcore 5000

!CPCM
%cpcm smd true
SMDsolvent "MeCN"
surfacetype gepol_ses
rsolv 2.19
end 

* xyz 1 2
C           1.33258331923557      0.00170141551843     -0.00159978181663
C           0.74418516530526      1.28796836578371     -0.00402286538407
C          -0.60990848192178      1.40301479673948     -0.00295532481321
C          -1.42134795453659      0.23924359742251     -0.00104561662918
C          -0.83755188797990     -1.04799168534496     -0.00334506703139
C           0.52083171367944     -1.15908868457999     -0.00301913428709
H           0.98248702332707     -2.13657732390713     -0.00338656679209
H          -1.45174384152623     -1.93368395441107     -0.00346646396592
O          -2.71297572479313      0.45750316246266      0.00277054073026
C          -3.62916484340381     -0.65559216350797      0.00282841848110
H          -4.61551501682892     -0.20882187243822      0.00558854685565
H          -3.48471113413149     -1.25181789721985     -0.89465675396484
H          -3.48140572784942     -1.25537739128628      0.89752154779495
H          -1.09282397732745      2.36919907409702     -0.00272988941936
H           1.36947790464052      2.16873906040872     -0.00702064636042
S           3.02798089429278     -0.23400518006723      0.00569180487133
H           3.38469806981809      1.06816708033014      0.01293395173092
*
