C N O H                                 
   1.00000000000000     
    40.0000000000000000    0.0000000000000000    0.0000000000000000
     0.0000000000000000   40.0000000000000000    0.0000000000000000
     0.0000000000000000    0.0000000000000000   40.0000000000000000
   C    N    O    H 
    10     1     1    13
Selective dynamics
Direct
  0.4673644280390548  0.5297028902582781  0.5016016998339268   T   T   T
  0.4337393644816245  0.5330617243108406  0.4927903578578352   T   T   T
  0.4128255830920935  0.5051847763504469  0.4901781287684130   T   T   T
  0.4263544562920174  0.4735807100079725  0.4968795417246668   T   T   T
  0.4597722969557481  0.4698740561166446  0.5059328463983661   T   T   T
  0.4813005515027413  0.4979132206930643  0.5085343017146684   T   T   T
  0.5341952658824312  0.4650832080733238  0.5079115743900644   T   T   T
  0.5558658898252347  0.4746980093069837  0.4778491582722140   T   T   T
  0.5572875561199879  0.5313037796193711  0.4952729979719379   T   T   T
  0.5359346754755023  0.5224981663165948  0.5256756518081716   T   T   T
  0.5143245212757961  0.4938248094601363  0.5189702443091662   T   T   T
  0.5769678245487384  0.5028918153137454  0.4851586953390381   T   T   T
  0.5503314495696756  0.4568674999121569  0.5287054116910781   T   T   T
  0.5180435854440546  0.4440617918569814  0.5010706196629684   T   T   T
  0.5396328361558602  0.4806179978607190  0.4562139839391008   T   T   T
  0.5726272800765884  0.4540638121499896  0.4709678570407263   T   T   T
  0.5750807618878540  0.5513608882796603  0.5011895522194720   T   T   T
  0.5412696520361067  0.5394799553068097  0.4742452010458678   T   T   T
  0.5211665713077522  0.5440199423451872  0.5340436422763659   T   T   T
  0.5527217989382294  0.5155514410112758  0.5464501292828103   T   T   T
  0.4691062891655378  0.4449742799154137  0.5118584757947318   T   T   T
  0.4105658619656793  0.4513554567146869  0.4954216761045629   T   T   T
  0.3866352386606025  0.5079673414733605  0.4831365974743775   T   T   T
  0.4240047906181417  0.5580081929713430  0.4874944344504186   T   T   T
  0.4828784706829481  0.5520552343750253  0.5024482206290344   T   T   T
 
  0.00000000E+00  0.00000000E+00  0.00000000E+00
  0.00000000E+00  0.00000000E+00  0.00000000E+00
  0.00000000E+00  0.00000000E+00  0.00000000E+00
  0.00000000E+00  0.00000000E+00  0.00000000E+00
  0.00000000E+00  0.00000000E+00  0.00000000E+00
  0.00000000E+00  0.00000000E+00  0.00000000E+00
  0.00000000E+00  0.00000000E+00  0.00000000E+00
  0.00000000E+00  0.00000000E+00  0.00000000E+00
  0.00000000E+00  0.00000000E+00  0.00000000E+00
  0.00000000E+00  0.00000000E+00  0.00000000E+00
  0.00000000E+00  0.00000000E+00  0.00000000E+00
  0.00000000E+00  0.00000000E+00  0.00000000E+00
  0.00000000E+00  0.00000000E+00  0.00000000E+00
  0.00000000E+00  0.00000000E+00  0.00000000E+00
  0.00000000E+00  0.00000000E+00  0.00000000E+00
  0.00000000E+00  0.00000000E+00  0.00000000E+00
  0.00000000E+00  0.00000000E+00  0.00000000E+00
  0.00000000E+00  0.00000000E+00  0.00000000E+00
  0.00000000E+00  0.00000000E+00  0.00000000E+00
  0.00000000E+00  0.00000000E+00  0.00000000E+00
  0.00000000E+00  0.00000000E+00  0.00000000E+00
  0.00000000E+00  0.00000000E+00  0.00000000E+00
  0.00000000E+00  0.00000000E+00  0.00000000E+00
  0.00000000E+00  0.00000000E+00  0.00000000E+00
  0.00000000E+00  0.00000000E+00  0.00000000E+00
