C O H                                   
   1.00000000000000     
    40.0000000000000000    0.0000000000000000    0.0000000000000000
     0.0000000000000000   40.0000000000000000    0.0000000000000000
     0.0000000000000000    0.0000000000000000   40.0000000000000000
   C    O    H 
     4     2     8
Selective dynamics
Direct
  0.5190103877373460  0.4705714434747534  0.5059798285358355   T   T   T
  0.4809916122626490  0.4705704434747489  0.4940201714641645   T   T   T
  0.4809896122626540  0.5294285565252466  0.4940201714641645   T   T   T
  0.5190083877373510  0.5294295565252511  0.5059798285358355   T   T   T
  0.4668378890420399  0.4999990000000025  0.5069534515161820   T   T   T
  0.5331621109579601  0.5000009999999975  0.4930465484838180   T   T   T
  0.4683649944254498  0.4491094587438127  0.5053704545088280   T   T   T
  0.4808001574686429  0.4700940979937798  0.4665755571935577   T   T   T
  0.5316350055745502  0.5508905412561873  0.4946295454911720   T   T   T
  0.5191998425313571  0.5299059020062202  0.5334244428064423   T   T   T
  0.4683619944254502  0.5508885412561852  0.5053714545088326   T   T   T
  0.4807971574686434  0.5299059020062202  0.4665765571935623   T   T   T
  0.5316380055745498  0.4491114587438148  0.4946285454911674   T   T   T
  0.5192028425313566  0.4700940979937798  0.5334234428064377   T   T   T
 
  0.00000000E+00  0.00000000E+00  0.00000000E+00
  0.00000000E+00  0.00000000E+00  0.00000000E+00
  0.00000000E+00  0.00000000E+00  0.00000000E+00
  0.00000000E+00  0.00000000E+00  0.00000000E+00
  0.00000000E+00  0.00000000E+00  0.00000000E+00
  0.00000000E+00  0.00000000E+00  0.00000000E+00
  0.00000000E+00  0.00000000E+00  0.00000000E+00
  0.00000000E+00  0.00000000E+00  0.00000000E+00
  0.00000000E+00  0.00000000E+00  0.00000000E+00
  0.00000000E+00  0.00000000E+00  0.00000000E+00
  0.00000000E+00  0.00000000E+00  0.00000000E+00
  0.00000000E+00  0.00000000E+00  0.00000000E+00
  0.00000000E+00  0.00000000E+00  0.00000000E+00
  0.00000000E+00  0.00000000E+00  0.00000000E+00
