C N H                                   
   1.00000000000000     
    40.0000000000000000    0.0000000000000000    0.0000000000000000
     0.0000000000000000   40.0000000000000000    0.0000000000000000
     0.0000000000000000    0.0000000000000000   40.0000000000000000
   C    N    H 
     5     1    11
Selective dynamics
Direct
  0.4655029496820983  0.5000011660642265  0.5039343306704024   T   T   T
  0.4841881227940966  0.4684513589383256  0.4926552523908628   T   T   T
  0.5207369192830572  0.4696431859051838  0.5039333257342106   T   T   T
  0.5207357127084513  0.5303552686430631  0.5039370506842432   T   T   T
  0.4841904716223581  0.5315499571189684  0.4926521888735002   T   T   T
  0.5368767570026348  0.5000008354606871  0.4910946406942212   T   T   T
  0.5615142668290348  0.4999995302640199  0.4976970776392279   T   T   T
  0.4720988986215962  0.5541413929456047  0.5027012418435123   T   T   T
  0.4833927858208696  0.5333802964530306  0.4651456161489408   T   T   T
  0.5344962791734816  0.5522454335419796  0.4945514879547374   T   T   T
  0.5214726233728340  0.5314902750595720  0.5317727192831209   T   T   T
  0.5344925057829293  0.4477558141726789  0.4945413437273613   T   T   T
  0.5214783381465806  0.4685039443278178  0.5317691046575072   T   T   T
  0.4720972659413233  0.4458621129972545  0.5027115857791814   T   T   T
  0.4833854619061623  0.4666144927305947  0.4651493556899588   T   T   T
  0.4397326919073234  0.5000017940387141  0.4942566229994982   T   T   T
  0.4636089494051583  0.5000041413382761  0.5314970552294996   T   T   T
 
  0.00000000E+00  0.00000000E+00  0.00000000E+00
  0.00000000E+00  0.00000000E+00  0.00000000E+00
  0.00000000E+00  0.00000000E+00  0.00000000E+00
  0.00000000E+00  0.00000000E+00  0.00000000E+00
  0.00000000E+00  0.00000000E+00  0.00000000E+00
  0.00000000E+00  0.00000000E+00  0.00000000E+00
  0.00000000E+00  0.00000000E+00  0.00000000E+00
  0.00000000E+00  0.00000000E+00  0.00000000E+00
  0.00000000E+00  0.00000000E+00  0.00000000E+00
  0.00000000E+00  0.00000000E+00  0.00000000E+00
  0.00000000E+00  0.00000000E+00  0.00000000E+00
  0.00000000E+00  0.00000000E+00  0.00000000E+00
  0.00000000E+00  0.00000000E+00  0.00000000E+00
  0.00000000E+00  0.00000000E+00  0.00000000E+00
  0.00000000E+00  0.00000000E+00  0.00000000E+00
  0.00000000E+00  0.00000000E+00  0.00000000E+00
  0.00000000E+00  0.00000000E+00  0.00000000E+00
