C O H                                   
   1.00000000000000     
    40.0000000000000000    0.0000000000000000    0.0000000000000000
     0.0000000000000000   40.0000000000000000    0.0000000000000000
     0.0000000000000000    0.0000000000000000   40.0000000000000000
   C    O    H 
     9     1     8
Selective dynamics
Direct
  0.4880522557347113  0.4778001065570849  0.4999922265397387   T   T   T
  0.4733649060100394  0.5096743981852602  0.4999973155336257   T   T   T
  0.4938628748827920  0.5382522328930378  0.4999967391576240   T   T   T
  0.5283665706902769  0.5350245539470162  0.4999909097422218   T   T   T
  0.5436129034714715  0.5031349890744480  0.4999915152153470   T   T   T
  0.5227861864878925  0.4747754834362832  0.4999881925069714   T   T   T
  0.5790480233177944  0.4998754303878538  0.4999994598979519   T   T   T
  0.6093297829130629  0.4972118363408124  0.5000162864044178   T   T   T
  0.4177567762665295  0.4872780565022688  0.5000089836541137   T   T   T
  0.4397464361630722  0.5155582995681920  0.5000017699125131   T   T   T
  0.5340721609217399  0.4499722327909099  0.4999823661030642   T   T   T
  0.6359722060878499  0.4948025118152055  0.5000295621988144   T   T   T
  0.5440386738498690  0.5573163634087943  0.4999883879141698   T   T   T
  0.4820814147152744  0.5628211644299060  0.4999961499087646   T   T   T
  0.3924103725225929  0.4975895270793592  0.5000163250370872   T   T   T
  0.4213551346479393  0.4718130046571465  0.4775140367299381   T   T   T
  0.4213694738975789  0.4718124171501040  0.5225009749080898   T   T   T
  0.4727728474195220  0.4552873917763104  0.4999887986355395   T   T   T
 
  0.00000000E+00  0.00000000E+00  0.00000000E+00
  0.00000000E+00  0.00000000E+00  0.00000000E+00
  0.00000000E+00  0.00000000E+00  0.00000000E+00
  0.00000000E+00  0.00000000E+00  0.00000000E+00
  0.00000000E+00  0.00000000E+00  0.00000000E+00
  0.00000000E+00  0.00000000E+00  0.00000000E+00
  0.00000000E+00  0.00000000E+00  0.00000000E+00
  0.00000000E+00  0.00000000E+00  0.00000000E+00
  0.00000000E+00  0.00000000E+00  0.00000000E+00
  0.00000000E+00  0.00000000E+00  0.00000000E+00
  0.00000000E+00  0.00000000E+00  0.00000000E+00
  0.00000000E+00  0.00000000E+00  0.00000000E+00
  0.00000000E+00  0.00000000E+00  0.00000000E+00
  0.00000000E+00  0.00000000E+00  0.00000000E+00
  0.00000000E+00  0.00000000E+00  0.00000000E+00
  0.00000000E+00  0.00000000E+00  0.00000000E+00
  0.00000000E+00  0.00000000E+00  0.00000000E+00
  0.00000000E+00  0.00000000E+00  0.00000000E+00
