!PBE0 freq def2-SV(p) d3 TightSCF SlowConv RIJCOSX defgrid2

%pal
nprocs 12
end

%scf
MaxIter 1500
end

%maxcore 5000

!CPCM
%cpcm smd true
SMDsolvent "MeCN"
surfacetype gepol_ses
rsolv 2.19
end 

* xyz 0 1
C          -0.01802896845239      1.20246687236424     -0.00040350386804
C           1.37385508581204      1.22350085476315     -0.00007157743814
C           2.05875510357667      0.01432826825298      0.00016628513087
C           1.39879383638469     -1.21113592131215      0.00045500919134
C           0.01026733923864     -1.21463484349818     -0.00000952732553
C          -0.71507796756793     -0.01397305883000     -0.00046531199644
C          -2.20770845719811     -0.08895487988958     -0.00088664992835
O          -2.76782245285371     -1.16826134038308     -0.00232674819360
C          -2.98941519758123      1.19654476720337      0.00017535041410
H          -2.74823696252798      1.80459409217493      0.88970488126560
H          -2.74859212023059      1.80573205230095     -0.88871175009914
H          -4.06494197679718      0.96411929325427      0.00032057105064
H          -0.54166635921363     -2.15800654701472      0.00017461779214
H           1.97725312728580     -2.13848070328047      0.00086453618096
F           3.39145191021298      0.02773528277714      0.00012049294654
H           1.93162292073543      2.16319626520343     -0.00020583790153
H          -0.55614076082348      2.15332164591368     -0.00062723722141
*
