C N H                                   
   1.00000000000000     
    40.0000000000000000    0.0000000000000000    0.0000000000000000
     0.0000000000000000   40.0000000000000000    0.0000000000000000
     0.0000000000000000    0.0000000000000000   40.0000000000000000
   C    N    H 
    10     1    17
Selective dynamics
Direct
  0.5274144939202450  0.4689596178968753  0.5015044087645920   T   T   T
  0.5096586925960029  0.5024081811258199  0.5009983924361492   T   T   T
  0.5269484672162529  0.5317500352450839  0.5002374474100734   T   T   T
  0.5645436812043610  0.5338334327950668  0.4995428887796726   T   T   T
  0.5808627767343547  0.5003841433484802  0.4905991994589333   T   T   T
  0.5645020215971002  0.4720913326426611  0.5104076289569798   T   T   T
  0.4546273373414562  0.5310003387798791  0.5020790143783829   T   T   T
  0.4189932752694336  0.5176906424038564  0.5065407772667812   T   T   T
  0.4204438962953915  0.4833727828951965  0.4894860218644382   T   T   T
  0.4551973763108914  0.4704605744625339  0.4991766743121029   T   T   T
  0.4751745914804183  0.5010018481836660  0.5014690547988350   T   T   T
  0.5771857656394391  0.4481131093755146  0.5057857079975245   T   T   T
  0.5669753476027257  0.4773244827852319  0.5373757882356410   T   T   T
  0.6079423376298390  0.5012831994162477  0.4954023986285362   T   T   T
  0.5776246262409586  0.4954891811814666  0.4636415481220484   T   T   T
  0.5725256713010880  0.5531881371566327  0.4815798919192953   T   T   T
  0.5743071073542739  0.5423155061913713  0.5240533692134876   T   T   T
  0.5133189048910409  0.5553672216669593  0.5002258172850663   T   T   T
  0.4652982996990683  0.4530169093263189  0.4804718712706664   T   T   T
  0.4542387246172620  0.4569698745740097  0.5233555705409670   T   T   T
  0.4003467579462802  0.4663903239910605  0.4972786012379510   T   T   T
  0.4189557469329212  0.4863550985088487  0.4621706451412614   T   T   T
  0.4000679026310828  0.5344276847162974  0.4958584015820273   T   T   T
  0.4134376670859037  0.5146718470336251  0.5333235643754149   T   T   T
  0.4623201055622502  0.5477076659178844  0.5226516537699918   T   T   T
  0.4574024945721094  0.5454187567280224  0.4785618260804095   T   T   T
  0.5149320447254387  0.4521642983728561  0.5194024781371297   T   T   T
  0.5247538856024179  0.4568457732785501  0.4768203580356745   T   T   T
 
  0.00000000E+00  0.00000000E+00  0.00000000E+00
  0.00000000E+00  0.00000000E+00  0.00000000E+00
  0.00000000E+00  0.00000000E+00  0.00000000E+00
  0.00000000E+00  0.00000000E+00  0.00000000E+00
  0.00000000E+00  0.00000000E+00  0.00000000E+00
  0.00000000E+00  0.00000000E+00  0.00000000E+00
  0.00000000E+00  0.00000000E+00  0.00000000E+00
  0.00000000E+00  0.00000000E+00  0.00000000E+00
  0.00000000E+00  0.00000000E+00  0.00000000E+00
  0.00000000E+00  0.00000000E+00  0.00000000E+00
  0.00000000E+00  0.00000000E+00  0.00000000E+00
  0.00000000E+00  0.00000000E+00  0.00000000E+00
  0.00000000E+00  0.00000000E+00  0.00000000E+00
  0.00000000E+00  0.00000000E+00  0.00000000E+00
  0.00000000E+00  0.00000000E+00  0.00000000E+00
  0.00000000E+00  0.00000000E+00  0.00000000E+00
  0.00000000E+00  0.00000000E+00  0.00000000E+00
  0.00000000E+00  0.00000000E+00  0.00000000E+00
  0.00000000E+00  0.00000000E+00  0.00000000E+00
  0.00000000E+00  0.00000000E+00  0.00000000E+00
  0.00000000E+00  0.00000000E+00  0.00000000E+00
  0.00000000E+00  0.00000000E+00  0.00000000E+00
  0.00000000E+00  0.00000000E+00  0.00000000E+00
  0.00000000E+00  0.00000000E+00  0.00000000E+00
  0.00000000E+00  0.00000000E+00  0.00000000E+00
  0.00000000E+00  0.00000000E+00  0.00000000E+00
  0.00000000E+00  0.00000000E+00  0.00000000E+00
  0.00000000E+00  0.00000000E+00  0.00000000E+00
