C N H                                   
   1.00000000000000     
    40.0000000000000000    0.0000000000000000    0.0000000000000000
     0.0000000000000000   40.0000000000000000    0.0000000000000000
     0.0000000000000000    0.0000000000000000   40.0000000000000000
   C    N    H 
     4     1     9
Selective dynamics
Direct
  0.5127014952642653  0.4697987240820388  0.4996448142405594   T   T   T
  0.5126943475981632  0.5302053675540110  0.4997152245578187   T   T   T
  0.4758395456421439  0.5194457248667079  0.5002688675120857   T   T   T
  0.4758503443288032  0.4805454204788122  0.5003502064137527   T   T   T
  0.5316969249202274  0.5000022133584716  0.5009975102098601   T   T   T
  0.5572678370193360  0.5000053620930661  0.5020568102849933   T   T   T
  0.4635997138753010  0.4706592276246809  0.5227496513785823   T   T   T
  0.4625721997682982  0.4704415468461665  0.4786530871759955   T   T   T
  0.4634540605626906  0.5294249193947931  0.5225490053394112   T   T   T
  0.4626897639893655  0.5294503151531080  0.4784469147530848   T   T   T
  0.5202485696038061  0.5441600854877078  0.4769242450263785   T   T   T
  0.5205608382524812  0.5466862333224798  0.5205221188647969   T   T   T
  0.5201924998198748  0.4559492784233631  0.4767672013917470   T   T   T
  0.5206328593552125  0.4532285813146213  0.5203533428509364   T   T   T
 
  0.00000000E+00  0.00000000E+00  0.00000000E+00
  0.00000000E+00  0.00000000E+00  0.00000000E+00
  0.00000000E+00  0.00000000E+00  0.00000000E+00
  0.00000000E+00  0.00000000E+00  0.00000000E+00
  0.00000000E+00  0.00000000E+00  0.00000000E+00
  0.00000000E+00  0.00000000E+00  0.00000000E+00
  0.00000000E+00  0.00000000E+00  0.00000000E+00
  0.00000000E+00  0.00000000E+00  0.00000000E+00
  0.00000000E+00  0.00000000E+00  0.00000000E+00
  0.00000000E+00  0.00000000E+00  0.00000000E+00
  0.00000000E+00  0.00000000E+00  0.00000000E+00
  0.00000000E+00  0.00000000E+00  0.00000000E+00
  0.00000000E+00  0.00000000E+00  0.00000000E+00
  0.00000000E+00  0.00000000E+00  0.00000000E+00
