!PBE0 def2-SV(p) Opt Freq d3 TightSCF SlowConv RIJCOSX defgrid2
 
%pal
nprocs 4
end
 
%scf
MaxIter 1500
end
 
%maxcore 3000
 

 
* xyz 1 2
C     0.4202807   -0.5427922   -0.0559640 
C     1.4835633   -1.4151000    0.2269969 
C     2.7805435   -0.9602517    0.2591069 
C     3.0660186    0.3924292    0.0188422 
C     2.0461852    1.2788135   -0.2262018 
C     0.7053606    0.8565025   -0.2004830 
C    -0.3227311    1.8493785   -0.2425305 
C    -1.5599046    1.7431801    0.3037843 
C    -2.6019994    2.7734602    0.1839915 
H    -3.5283194    2.3258451   -0.1819785 
H    -2.8402672    3.1686732    1.1744796 
H    -2.3071574    3.5884483   -0.4716105 
H    -1.8081597    0.8836845    0.9140193 
H    -0.0391727    2.7983144   -0.6838372 
H     2.2621586    2.3244831   -0.3823073 
H     4.0889184    0.7345977    0.0412591 
H     3.5897333   -1.6519964    0.4354050 
H     1.2874439   -2.4686909    0.3442209 
C    -0.8975520   -1.0425387   -0.3224839 
C    -1.4119316   -2.2009401    0.1639433 
C    -2.7724951   -2.6723401   -0.1272077 
H    -3.3000869   -2.0203895   -0.8184955 
H    -2.7250340   -3.6831304   -0.5394310 
H    -3.3433157   -2.7656220    0.7998151 
H    -0.8315314   -2.8124361    0.8416669 
H    -1.5148019   -0.4420684   -0.9786274
*
