C N H                                   
   1.00000000000000     
    40.0000000000000000    0.0000000000000000    0.0000000000000000
     0.0000000000000000   40.0000000000000000    0.0000000000000000
     0.0000000000000000    0.0000000000000000   40.0000000000000000
   C    N    H 
     8     2     4
Selective dynamics
Direct
  0.4698287338808942  0.4902273675589414  0.4999992166801213   T   T   T
  0.4697390769750828  0.5254301930940268  0.5000041848076531   T   T   T
  0.5000007141604296  0.5427388942046035  0.4999997261980781   T   T   T
  0.5302619694100609  0.5254290827596318  0.4999935966090813   T   T   T
  0.5301709635480090  0.4902258848057277  0.4999916916068770   T   T   T
  0.4999993156690538  0.4723557964016297  0.4999925319121034   T   T   T
  0.5611232634840686  0.4724068328307403  0.5000040762346513   T   T   T
  0.4388750227218411  0.4724100568637760  0.4999995548782565   T   T   T
  0.5864995806996623  0.4579446865316760  0.5000221486488092   T   T   T
  0.4134978141815905  0.4579479247759757  0.4999973956729896   T   T   T
  0.4999986002212146  0.4451443339609019  0.4999925250969959   T   T   T
  0.5539360898781799  0.5388799983600766  0.4999916091697423   T   T   T
  0.5000013603254395  0.5699788050180472  0.5000030757875493   T   T   T
  0.4460654948444780  0.5388821428342403  0.5000096666970678   T   T   T
 
  0.00000000E+00  0.00000000E+00  0.00000000E+00
  0.00000000E+00  0.00000000E+00  0.00000000E+00
  0.00000000E+00  0.00000000E+00  0.00000000E+00
  0.00000000E+00  0.00000000E+00  0.00000000E+00
  0.00000000E+00  0.00000000E+00  0.00000000E+00
  0.00000000E+00  0.00000000E+00  0.00000000E+00
  0.00000000E+00  0.00000000E+00  0.00000000E+00
  0.00000000E+00  0.00000000E+00  0.00000000E+00
  0.00000000E+00  0.00000000E+00  0.00000000E+00
  0.00000000E+00  0.00000000E+00  0.00000000E+00
  0.00000000E+00  0.00000000E+00  0.00000000E+00
  0.00000000E+00  0.00000000E+00  0.00000000E+00
  0.00000000E+00  0.00000000E+00  0.00000000E+00
  0.00000000E+00  0.00000000E+00  0.00000000E+00
