C Cl O H                                
   1.00000000000000     
    40.0000000000000000    0.0000000000000000    0.0000000000000000
     0.0000000000000000   40.0000000000000000    0.0000000000000000
     0.0000000000000000    0.0000000000000000   40.0000000000000000
   C    Cl   O    H 
     7     1     1     5
Selective dynamics
Direct
  0.4966909470857698  0.4688049078549830  0.4999793386462318   T   T   T
  0.4630779320482286  0.4763963224505428  0.4999753991049073   T   T   T
  0.4518793265871193  0.5096952895152450  0.4999959518010027   T   T   T
  0.4759457291287723  0.5353387692185464  0.5000141623482700   T   T   T
  0.5097315945788863  0.5283952170987730  0.5000194764703668   T   T   T
  0.5215830016451641  0.4947083834641235  0.5000008889912283   T   T   T
  0.5552916925476834  0.4844686395197265  0.5000048332886923   T   T   T
  0.5864595235289684  0.5211518251495872  0.5000191362190869   T   T   T
  0.5682004448431924  0.4565660375349321  0.4999984516860739   T   T   T
  0.5278019922216103  0.5485201277624377  0.5000323107553585   T   T   T
  0.4678710230695221  0.5612849258282733  0.5000279221238215   T   T   T
  0.4254076485693360  0.5154747445362379  0.4999947393134793   T   T   T
  0.4449552540111197  0.4561376533095051  0.4999656477942554   T   T   T
  0.5051028901346448  0.4430581567570846  0.4999717414572110   T   T   T
 
  0.00000000E+00  0.00000000E+00  0.00000000E+00
  0.00000000E+00  0.00000000E+00  0.00000000E+00
  0.00000000E+00  0.00000000E+00  0.00000000E+00
  0.00000000E+00  0.00000000E+00  0.00000000E+00
  0.00000000E+00  0.00000000E+00  0.00000000E+00
  0.00000000E+00  0.00000000E+00  0.00000000E+00
  0.00000000E+00  0.00000000E+00  0.00000000E+00
  0.00000000E+00  0.00000000E+00  0.00000000E+00
  0.00000000E+00  0.00000000E+00  0.00000000E+00
  0.00000000E+00  0.00000000E+00  0.00000000E+00
  0.00000000E+00  0.00000000E+00  0.00000000E+00
  0.00000000E+00  0.00000000E+00  0.00000000E+00
  0.00000000E+00  0.00000000E+00  0.00000000E+00
  0.00000000E+00  0.00000000E+00  0.00000000E+00
