C H                                     
   1.00000000000000     
    40.0000000000000000    0.0000000000000000    0.0000000000000000
     0.0000000000000000   40.0000000000000000    0.0000000000000000
     0.0000000000000000    0.0000000000000000   40.0000000000000000
   C    H 
    10    12
Selective dynamics
Direct
  0.4947810886273647  0.4749397786220931  0.5001065432976221   T   T   T
  0.4602412406397019  0.4707903941789416  0.5001889915480876   T   T   T
  0.4383910913247487  0.4983821033851548  0.5001922313200783   T   T   T
  0.4526973075096551  0.5303654458666311  0.5002092920072430   T   T   T
  0.4873594663548156  0.5346683397921533  0.5001198504212742   T   T   T
  0.5092877623024775  0.5071275482891081  0.5000527158716410   T   T   T
  0.5454950817928118  0.5130925353624760  0.5000120513847810   T   T   T
  0.5700607281169746  0.4900557882896253  0.5000229768797104   T   T   T
  0.6065674856071719  0.4980656517815633  0.4999567580840740   T   T   T
  0.4010671870697622  0.4934688765583918  0.4997788192146696   T   T   T
  0.6191412270175538  0.4872275807497172  0.5219618861480398   T   T   T
  0.6190696584990822  0.4871443461007847  0.4779499413971184   T   T   T
  0.6109968108456016  0.5251838271635852  0.4998951884753740   T   T   T
  0.5636850464218711  0.4634297470303432  0.5000801199785727   T   T   T
  0.5527917704653720  0.5395220418512618  0.4999555127107744   T   T   T
  0.4978165194157584  0.5599183537643320  0.5001527089432622   T   T   T
  0.4364309738163351  0.5523044025569043  0.5003156709695937   T   T   T
  0.3877858847448735  0.5168937988503172  0.5050641789694246   T   T   T
  0.3925632592297504  0.4844009672540096  0.4752082909137277   T   T   T
  0.3932225297059547  0.4747158031916714  0.5182879313388946   T   T   T
  0.4498411626669115  0.4455292882335233  0.5003212763201251   T   T   T
  0.5107067178254513  0.4527743811274162  0.5001680638058947   T   T   T
 
  0.00000000E+00  0.00000000E+00  0.00000000E+00
  0.00000000E+00  0.00000000E+00  0.00000000E+00
  0.00000000E+00  0.00000000E+00  0.00000000E+00
  0.00000000E+00  0.00000000E+00  0.00000000E+00
  0.00000000E+00  0.00000000E+00  0.00000000E+00
  0.00000000E+00  0.00000000E+00  0.00000000E+00
  0.00000000E+00  0.00000000E+00  0.00000000E+00
  0.00000000E+00  0.00000000E+00  0.00000000E+00
  0.00000000E+00  0.00000000E+00  0.00000000E+00
  0.00000000E+00  0.00000000E+00  0.00000000E+00
  0.00000000E+00  0.00000000E+00  0.00000000E+00
  0.00000000E+00  0.00000000E+00  0.00000000E+00
  0.00000000E+00  0.00000000E+00  0.00000000E+00
  0.00000000E+00  0.00000000E+00  0.00000000E+00
  0.00000000E+00  0.00000000E+00  0.00000000E+00
  0.00000000E+00  0.00000000E+00  0.00000000E+00
  0.00000000E+00  0.00000000E+00  0.00000000E+00
  0.00000000E+00  0.00000000E+00  0.00000000E+00
  0.00000000E+00  0.00000000E+00  0.00000000E+00
  0.00000000E+00  0.00000000E+00  0.00000000E+00
  0.00000000E+00  0.00000000E+00  0.00000000E+00
  0.00000000E+00  0.00000000E+00  0.00000000E+00
