C N H                                   
   1.00000000000000     
    40.0000000000000000    0.0000000000000000    0.0000000000000000
     0.0000000000000000   40.0000000000000000    0.0000000000000000
     0.0000000000000000    0.0000000000000000   40.0000000000000000
   C    N    H 
     6     1    15
Selective dynamics
Direct
  0.4467861873941033  0.4701099546569623  0.4923572665225322   T   T   T
  0.4687948537981299  0.5019357453052109  0.4932922634629335   T   T   T
  0.5319122727585466  0.4946299249672350  0.4917110566443696   T   T   T
  0.5436914159029342  0.5317772152075548  0.4899240698285041   T   T   T
  0.5575499661499705  0.4721867807859894  0.5087981331194911   T   T   T
  0.4516200307421983  0.5302046756392400  0.5129519641013900   T   T   T
  0.5002754327891523  0.4937773170637314  0.5087579169671486   T   T   T
  0.5000708971142416  0.4883745796334864  0.5338698088383609   T   T   T
  0.5480462231254108  0.5415967927867484  0.5151461057646927   T   T   T
  0.5252933255495265  0.5474243100701912  0.4769745340899902   T   T   T
  0.5672050606214611  0.5320431116869884  0.4757931983167722   T   T   T
  0.5487444952901441  0.4462231621455857  0.5098254103974398   T   T   T
  0.5809072984944947  0.4729275237618111  0.4944379631879059   T   T   T
  0.5629072220136138  0.4808846612609798  0.5343045028664974   T   T   T
  0.5270860476843779  0.4864964810213976  0.4658134269220469   T   T   T
  0.4670899285601777  0.5528423442339658  0.5131934377469420   T   T   T
  0.4464769332509491  0.5225128369381267  0.5387919333534157   T   T   T
  0.4277602929330584  0.5358199568783064  0.5006147682587567   T   T   T
  0.4741940675859766  0.5099456860263984  0.4675960964934305   T   T   T
  0.4590415535263972  0.4501420921257093  0.4781468689491390   T   T   T
  0.4412997361987863  0.4612812588759638  0.5177437143085299   T   T   T
  0.4232457585163232  0.4768655889284474  0.4799565598597155   T   T   T
 
  0.00000000E+00  0.00000000E+00  0.00000000E+00
  0.00000000E+00  0.00000000E+00  0.00000000E+00
  0.00000000E+00  0.00000000E+00  0.00000000E+00
  0.00000000E+00  0.00000000E+00  0.00000000E+00
  0.00000000E+00  0.00000000E+00  0.00000000E+00
  0.00000000E+00  0.00000000E+00  0.00000000E+00
  0.00000000E+00  0.00000000E+00  0.00000000E+00
  0.00000000E+00  0.00000000E+00  0.00000000E+00
  0.00000000E+00  0.00000000E+00  0.00000000E+00
  0.00000000E+00  0.00000000E+00  0.00000000E+00
  0.00000000E+00  0.00000000E+00  0.00000000E+00
  0.00000000E+00  0.00000000E+00  0.00000000E+00
  0.00000000E+00  0.00000000E+00  0.00000000E+00
  0.00000000E+00  0.00000000E+00  0.00000000E+00
  0.00000000E+00  0.00000000E+00  0.00000000E+00
  0.00000000E+00  0.00000000E+00  0.00000000E+00
  0.00000000E+00  0.00000000E+00  0.00000000E+00
  0.00000000E+00  0.00000000E+00  0.00000000E+00
  0.00000000E+00  0.00000000E+00  0.00000000E+00
  0.00000000E+00  0.00000000E+00  0.00000000E+00
  0.00000000E+00  0.00000000E+00  0.00000000E+00
  0.00000000E+00  0.00000000E+00  0.00000000E+00
