C O S H                                 
   1.00000000000000     
    40.0000000000000000    0.0000000000000000    0.0000000000000000
     0.0000000000000000   40.0000000000000000    0.0000000000000000
     0.0000000000000000    0.0000000000000000   40.0000000000000000
   C    O    S    H 
     7     1     1     8
Selective dynamics
Direct
  0.5514626412280386  0.5015694283730469  0.4969244984295025   T   T   T
  0.5363864846538688  0.5338315222655726  0.4983540265874932   T   T   T
  0.5022901158648327  0.5365453377319805  0.5008191506833037   T   T   T
  0.4820830231604391  0.5072036129897771  0.5018066026415292   T   T   T
  0.4969250838915155  0.4749408490554643  0.5009534720464480   T   T   T
  0.5311449002082419  0.4723016859756678  0.4985860059274411   T   T   T
  0.4262467077554650  0.4846256967309407  0.5037099249449204   T   T   T
  0.4493234043931200  0.5126979172753425  0.5034702762507168   T   T   T
  0.5937202893538237  0.4957282758348678  0.4930489196152087   T   T   T
  0.5428526218407029  0.4477066662530021  0.4978324688929140   T   T   T
  0.4816765723833961  0.4524552305158671  0.5020906019637250   T   T   T
  0.4014381106900378  0.4959856959077965  0.5046242568579428   T   T   T
  0.4292920449631872  0.4698916416817848  0.4807740406520435   T   T   T
  0.4305992434485843  0.4691461563743793  0.5259332473540568   T   T   T
  0.4900344201228747  0.5608446396277448  0.5019123137878880   T   T   T
  0.5519016698379252  0.5561930498755129  0.4974314145761296   T   T   T
  0.6026206662039157  0.5283335935312569  0.4917267787887629   T   T   T
 
  0.00000000E+00  0.00000000E+00  0.00000000E+00
  0.00000000E+00  0.00000000E+00  0.00000000E+00
  0.00000000E+00  0.00000000E+00  0.00000000E+00
  0.00000000E+00  0.00000000E+00  0.00000000E+00
  0.00000000E+00  0.00000000E+00  0.00000000E+00
  0.00000000E+00  0.00000000E+00  0.00000000E+00
  0.00000000E+00  0.00000000E+00  0.00000000E+00
  0.00000000E+00  0.00000000E+00  0.00000000E+00
  0.00000000E+00  0.00000000E+00  0.00000000E+00
  0.00000000E+00  0.00000000E+00  0.00000000E+00
  0.00000000E+00  0.00000000E+00  0.00000000E+00
  0.00000000E+00  0.00000000E+00  0.00000000E+00
  0.00000000E+00  0.00000000E+00  0.00000000E+00
  0.00000000E+00  0.00000000E+00  0.00000000E+00
  0.00000000E+00  0.00000000E+00  0.00000000E+00
  0.00000000E+00  0.00000000E+00  0.00000000E+00
  0.00000000E+00  0.00000000E+00  0.00000000E+00
