C N H                                   
   1.00000000000000     
    40.0000000000000000    0.0000000000000000    0.0000000000000000
     0.0000000000000000   40.0000000000000000    0.0000000000000000
     0.0000000000000000    0.0000000000000000   40.0000000000000000
   C    N    H 
     5     1    11
Selective dynamics
Direct
  0.4661543798171108  0.4999861715755362  0.5032448072151032   T   T   T
  0.4846662975232214  0.4684388800374533  0.4927262600447560   T   T   T
  0.5214308497907455  0.4692374280621224  0.5071554744579823   T   T   T
  0.5214024323455512  0.5307860919252373  0.5071477475401708   T   T   T
  0.4846385964939682  0.5315492686524034  0.4927165839939560   T   T   T
  0.5363427275491458  0.5000172512361796  0.4971224663606807   T   T   T
  0.5524246471142800  0.5000183454645580  0.4772630706901387   T   T   T
  0.4730469980233217  0.5544352259448008  0.5024786760907585   T   T   T
  0.4861139012966285  0.5336850386452096  0.4653676755715165   T   T   T
  0.5360751489300662  0.5519592044004934  0.4979629885249898   T   T   T
  0.5196073309822424  0.5313934166065319  0.5345998309097612   T   T   T
  0.5361226829813829  0.4480702224407042  0.4979795485146311   T   T   T
  0.5196366802837725  0.4686335646637513  0.5346117203231964   T   T   T
  0.4730973321244740  0.4455405325278672  0.5024939181711785   T   T   T
  0.4861474338017507  0.4662926077250593  0.4653773397414758   T   T   T
  0.4412781702608498  0.4999708047029258  0.4913211008011351   T   T   T
  0.4618153906814712  0.4999869453891783  0.5304307910485552   T   T   T
 
  0.00000000E+00  0.00000000E+00  0.00000000E+00
  0.00000000E+00  0.00000000E+00  0.00000000E+00
  0.00000000E+00  0.00000000E+00  0.00000000E+00
  0.00000000E+00  0.00000000E+00  0.00000000E+00
  0.00000000E+00  0.00000000E+00  0.00000000E+00
  0.00000000E+00  0.00000000E+00  0.00000000E+00
  0.00000000E+00  0.00000000E+00  0.00000000E+00
  0.00000000E+00  0.00000000E+00  0.00000000E+00
  0.00000000E+00  0.00000000E+00  0.00000000E+00
  0.00000000E+00  0.00000000E+00  0.00000000E+00
  0.00000000E+00  0.00000000E+00  0.00000000E+00
  0.00000000E+00  0.00000000E+00  0.00000000E+00
  0.00000000E+00  0.00000000E+00  0.00000000E+00
  0.00000000E+00  0.00000000E+00  0.00000000E+00
  0.00000000E+00  0.00000000E+00  0.00000000E+00
  0.00000000E+00  0.00000000E+00  0.00000000E+00
  0.00000000E+00  0.00000000E+00  0.00000000E+00
