C F N O H                               
   1.00000000000000     
    40.0000000000000000    0.0000000000000000    0.0000000000000000
     0.0000000000000000   40.0000000000000000    0.0000000000000000
     0.0000000000000000    0.0000000000000000   40.0000000000000000
   C    F    N    O    H 
     6     1     1     2     4
Selective dynamics
Direct
  0.4701058286763107  0.4694501606571322  0.4999970831016678   T   T   T
  0.5049029255519477  0.4693765194963849  0.4999983231161615   T   T   T
  0.5228450050825691  0.4999996955960644  0.5000000081177498   T   T   T
  0.5049034112908527  0.5306230188847880  0.5000018349927786   T   T   T
  0.4701059641431323  0.5305501351756600  0.5000026431992536   T   T   T
  0.4533190519731078  0.4999998991617171  0.4999997944975527   T   T   T
  0.4186952501211560  0.5000001808063145  0.4999994685548709   T   T   T
  0.5577991997608976  0.4999996835863075  0.4999999408149860   T   T   T
  0.5738310974810900  0.4716407326990574  0.4999988686062629   T   T   T
  0.5738312686564668  0.5283584174170276  0.5000006363881917   T   T   T
  0.4559983217356623  0.5538837263064397  0.5000041502918435   T   T   T
  0.5188326685574276  0.5539806620976452  0.5000045288449738   T   T   T
  0.5188322666098827  0.4460187916208899  0.4999962668765870   T   T   T
  0.4559977403594820  0.4461163764945623  0.4999954525971085   T   T   T
 
  0.00000000E+00  0.00000000E+00  0.00000000E+00
  0.00000000E+00  0.00000000E+00  0.00000000E+00
  0.00000000E+00  0.00000000E+00  0.00000000E+00
  0.00000000E+00  0.00000000E+00  0.00000000E+00
  0.00000000E+00  0.00000000E+00  0.00000000E+00
  0.00000000E+00  0.00000000E+00  0.00000000E+00
  0.00000000E+00  0.00000000E+00  0.00000000E+00
  0.00000000E+00  0.00000000E+00  0.00000000E+00
  0.00000000E+00  0.00000000E+00  0.00000000E+00
  0.00000000E+00  0.00000000E+00  0.00000000E+00
  0.00000000E+00  0.00000000E+00  0.00000000E+00
  0.00000000E+00  0.00000000E+00  0.00000000E+00
  0.00000000E+00  0.00000000E+00  0.00000000E+00
  0.00000000E+00  0.00000000E+00  0.00000000E+00
