C O H                                   
   1.00000000000000     
    40.0000000000000000    0.0000000000000000    0.0000000000000000
     0.0000000000000000   40.0000000000000000    0.0000000000000000
     0.0000000000000000    0.0000000000000000   40.0000000000000000
   C    O    H 
     8     1     6
Selective dynamics
Direct
  0.5175737706097538  0.4608653738232694  0.5000000000000000   T   T   T
  0.5481240321834865  0.4778556400951254  0.5000000000000000   T   T   T
  0.5495009980782567  0.5130806257081828  0.5000000000000000   T   T   T
  0.5204962802566822  0.5324572756049039  0.5000000000000000   T   T   T
  0.4894484670191969  0.5159695788878431  0.5000000000000000   T   T   T
  0.4890142640322590  0.4806725671533154  0.5000000000000000   T   T   T
  0.4365028504412619  0.4974802552404645  0.5000000000000000   T   T   T
  0.4548526164247447  0.5261334326120646  0.5000000000000000   T   T   T
  0.4564995926643148  0.4692026377827203  0.5000000000000000   T   T   T
  0.4449585088120278  0.5514174085530307  0.5000000000000000   T   T   T
  0.4098146921631647  0.4926152712578483  0.5000009999999975   T   T   T
  0.5218933533105059  0.5596934232435118  0.5000000000000000   T   T   T
  0.5738545959977756  0.5253665683945182  0.5000000000000000   T   T   T
  0.5713279734944148  0.4635291164660258  0.5000000000000000   T   T   T
  0.5161370045121429  0.4336598251771714  0.5000000000000000   T   T   T
 
  0.00000000E+00  0.00000000E+00  0.00000000E+00
  0.00000000E+00  0.00000000E+00  0.00000000E+00
  0.00000000E+00  0.00000000E+00  0.00000000E+00
  0.00000000E+00  0.00000000E+00  0.00000000E+00
  0.00000000E+00  0.00000000E+00  0.00000000E+00
  0.00000000E+00  0.00000000E+00  0.00000000E+00
  0.00000000E+00  0.00000000E+00  0.00000000E+00
  0.00000000E+00  0.00000000E+00  0.00000000E+00
  0.00000000E+00  0.00000000E+00  0.00000000E+00
  0.00000000E+00  0.00000000E+00  0.00000000E+00
  0.00000000E+00  0.00000000E+00  0.00000000E+00
  0.00000000E+00  0.00000000E+00  0.00000000E+00
  0.00000000E+00  0.00000000E+00  0.00000000E+00
  0.00000000E+00  0.00000000E+00  0.00000000E+00
  0.00000000E+00  0.00000000E+00  0.00000000E+00
