C N H                                   
   1.00000000000000     
    40.0000000000000000    0.0000000000000000    0.0000000000000000
     0.0000000000000000   40.0000000000000000    0.0000000000000000
     0.0000000000000000    0.0000000000000000   40.0000000000000000
   C    N    H 
     6     1     7
Selective dynamics
Direct
  0.4949958091603719  0.4688999696707725  0.4999903637464840   T   T   T
  0.5293573212612301  0.4692630889918874  0.5010000210195855   T   T   T
  0.5467937872696638  0.4999990000000025  0.5013928836206745   T   T   T
  0.5293573212612301  0.5307359110081080  0.5010000210195855   T   T   T
  0.4949968091603694  0.5311000303292275  0.4999903637464840   T   T   T
  0.4771563101695335  0.5000000000000000  0.4993512359363450   T   T   T
  0.4437880595381003  0.5000009999999975  0.4981186554439603   T   T   T
  0.4304874939596175  0.5216743525228935  0.4975829660534146   T   T   T
  0.4304864939596200  0.4783276474771085  0.4975829660534146   T   T   T
  0.4810490626599986  0.5545082475744678  0.4996030047064366   T   T   T
  0.5432296257653917  0.5541496556710541  0.5014210759327042   T   T   T
  0.5740252174094707  0.4999990000000025  0.5019433620817679   T   T   T
  0.5432286257653942  0.4458493443289413  0.5014210759327042   T   T   T
  0.4810470626600036  0.4454917524255322  0.4996030047064366   T   T   T
 
  0.00000000E+00  0.00000000E+00  0.00000000E+00
  0.00000000E+00  0.00000000E+00  0.00000000E+00
  0.00000000E+00  0.00000000E+00  0.00000000E+00
  0.00000000E+00  0.00000000E+00  0.00000000E+00
  0.00000000E+00  0.00000000E+00  0.00000000E+00
  0.00000000E+00  0.00000000E+00  0.00000000E+00
  0.00000000E+00  0.00000000E+00  0.00000000E+00
  0.00000000E+00  0.00000000E+00  0.00000000E+00
  0.00000000E+00  0.00000000E+00  0.00000000E+00
  0.00000000E+00  0.00000000E+00  0.00000000E+00
  0.00000000E+00  0.00000000E+00  0.00000000E+00
  0.00000000E+00  0.00000000E+00  0.00000000E+00
  0.00000000E+00  0.00000000E+00  0.00000000E+00
  0.00000000E+00  0.00000000E+00  0.00000000E+00
