C O H                                   
   1.00000000000000     
    40.0000000000000000    0.0000000000000000    0.0000000000000000
     0.0000000000000000   40.0000000000000000    0.0000000000000000
     0.0000000000000000    0.0000000000000000   40.0000000000000000
   C    O    H 
    14     1    12
Selective dynamics
Direct
  0.4568580725080240  0.5338251308900684  0.4918267199808333   T   T   T
  0.4387811747443233  0.5046600943868187  0.4989085583301023   T   T   T
  0.4564076956174748  0.4752358697412053  0.5059408161584519   T   T   T
  0.4910854424448403  0.4750266945564491  0.5058429872088247   T   T   T
  0.5092402688709877  0.5041929889373110  0.4989023788287058   T   T   T
  0.4914321747269412  0.5336438832036058  0.4919076003055974   T   T   T
  0.5461109052719617  0.5039991962671733  0.4989214822365452   T   T   T
  0.5639229660877020  0.4762407755571657  0.4870829120435760   T   T   T
  0.5986755452535133  0.4762024531222697  0.4869402960042445   T   T   T
  0.6162946547366474  0.5037881543387338  0.4988231128388614   T   T   T
  0.5988969838285657  0.5314789715494785  0.5107784325269700   T   T   T
  0.5641441012278303  0.5316461346096456  0.5107125127261914   T   T   T
  0.4016439993221133  0.5059602517139847  0.4988107708807373   T   T   T
  0.3822442013867822  0.4747042339888191  0.5066020602023085   T   T   T
  0.3869550891384025  0.5322928250082588  0.4924735468951725   T   T   T
  0.5049184991860518  0.5563548886802434  0.4858654880801702   T   T   T
  0.5508488139052548  0.5531534030948685  0.5205087957793119   T   T   T
  0.6124054018939993  0.5529757103052233  0.5203231679769621   T   T   T
  0.6433935726154683  0.5037012468162605  0.4987529168371121   T   T   T
  0.6120201130429322  0.4546389350151938  0.4773229075904947   T   T   T
  0.5504690886183857  0.4548381000597511  0.4772740070740048   T   T   T
  0.5042637819084778  0.4521312268676227  0.5118787120155754   T   T   T
  0.4431569428614144  0.4523417269298420  0.5117777143792388   T   T   T
  0.3556416639466068  0.4802164494506503  0.5054386840999178   T   T   T
  0.3883110395867153  0.4548770898620815  0.4887970324487734   T   T   T
  0.3886138259570955  0.4653260295345836  0.5314678202321715   T   T   T
  0.4432639813115161  0.5565485355126956  0.4861195663191430   T   T   T
 
  0.00000000E+00  0.00000000E+00  0.00000000E+00
  0.00000000E+00  0.00000000E+00  0.00000000E+00
  0.00000000E+00  0.00000000E+00  0.00000000E+00
  0.00000000E+00  0.00000000E+00  0.00000000E+00
  0.00000000E+00  0.00000000E+00  0.00000000E+00
  0.00000000E+00  0.00000000E+00  0.00000000E+00
  0.00000000E+00  0.00000000E+00  0.00000000E+00
  0.00000000E+00  0.00000000E+00  0.00000000E+00
  0.00000000E+00  0.00000000E+00  0.00000000E+00
  0.00000000E+00  0.00000000E+00  0.00000000E+00
  0.00000000E+00  0.00000000E+00  0.00000000E+00
  0.00000000E+00  0.00000000E+00  0.00000000E+00
  0.00000000E+00  0.00000000E+00  0.00000000E+00
  0.00000000E+00  0.00000000E+00  0.00000000E+00
  0.00000000E+00  0.00000000E+00  0.00000000E+00
  0.00000000E+00  0.00000000E+00  0.00000000E+00
  0.00000000E+00  0.00000000E+00  0.00000000E+00
  0.00000000E+00  0.00000000E+00  0.00000000E+00
  0.00000000E+00  0.00000000E+00  0.00000000E+00
  0.00000000E+00  0.00000000E+00  0.00000000E+00
  0.00000000E+00  0.00000000E+00  0.00000000E+00
  0.00000000E+00  0.00000000E+00  0.00000000E+00
  0.00000000E+00  0.00000000E+00  0.00000000E+00
  0.00000000E+00  0.00000000E+00  0.00000000E+00
  0.00000000E+00  0.00000000E+00  0.00000000E+00
  0.00000000E+00  0.00000000E+00  0.00000000E+00
  0.00000000E+00  0.00000000E+00  0.00000000E+00
