C O H                                   
   1.00000000000000     
    40.0000000000000000    0.0000000000000000    0.0000000000000000
     0.0000000000000000   40.0000000000000000    0.0000000000000000
     0.0000000000000000    0.0000000000000000   40.0000000000000000
   C    O    H 
     9     1     8
Selective dynamics
Direct
  0.4883899036931598  0.4768841422311643  0.4999899431370737   T   T   T
  0.4737512420684121  0.5093919240165578  0.4999968647441620   T   T   T
  0.4941125395490741  0.5388043254546996  0.4999978256405668   T   T   T
  0.5282181954592253  0.5357733647520818  0.4999935158201337   T   T   T
  0.5432597589959420  0.5033123746554535  0.4999912920326790   T   T   T
  0.5225782821079071  0.4740670660043154  0.4999883618209174   T   T   T
  0.5780346792932638  0.5000524720954354  0.5000013434585598   T   T   T
  0.6084972183872759  0.4972830385563510  0.5000157592700946   T   T   T
  0.4177045744003262  0.4870380025994019  0.5000065122205810   T   T   T
  0.4411675319120223  0.5149189928566940  0.5000013418227540   T   T   T
  0.5343802985746277  0.4495425270563788  0.4999841541181907   T   T   T
  0.6352622895885027  0.4948157165158881  0.5000281445857996   T   T   T
  0.5441793096700301  0.5578179008059663  0.4999927910663703   T   T   T
  0.4818503750828108  0.5631157872345330  0.4999991411367296   T   T   T
  0.3930363751525588  0.4986873950795957  0.5000142140082948   T   T   T
  0.4213586227804256  0.4719505474056931  0.4774114373371998   T   T   T
  0.4213717041991921  0.4719485548362078  0.5225993217780898   T   T   T
  0.4728460990852529  0.4545958678435751  0.4999880360017955   T   T   T
 
  0.00000000E+00  0.00000000E+00  0.00000000E+00
  0.00000000E+00  0.00000000E+00  0.00000000E+00
  0.00000000E+00  0.00000000E+00  0.00000000E+00
  0.00000000E+00  0.00000000E+00  0.00000000E+00
  0.00000000E+00  0.00000000E+00  0.00000000E+00
  0.00000000E+00  0.00000000E+00  0.00000000E+00
  0.00000000E+00  0.00000000E+00  0.00000000E+00
  0.00000000E+00  0.00000000E+00  0.00000000E+00
  0.00000000E+00  0.00000000E+00  0.00000000E+00
  0.00000000E+00  0.00000000E+00  0.00000000E+00
  0.00000000E+00  0.00000000E+00  0.00000000E+00
  0.00000000E+00  0.00000000E+00  0.00000000E+00
  0.00000000E+00  0.00000000E+00  0.00000000E+00
  0.00000000E+00  0.00000000E+00  0.00000000E+00
  0.00000000E+00  0.00000000E+00  0.00000000E+00
  0.00000000E+00  0.00000000E+00  0.00000000E+00
  0.00000000E+00  0.00000000E+00  0.00000000E+00
  0.00000000E+00  0.00000000E+00  0.00000000E+00
