C N H                                   
   1.00000000000000     
    40.0000000000000000    0.0000000000000000    0.0000000000000000
     0.0000000000000000   40.0000000000000000    0.0000000000000000
     0.0000000000000000    0.0000000000000000   40.0000000000000000
   C    N    H 
     8     1    11
Selective dynamics
Direct
  0.4801756765696059  0.5308070663550069  0.5001064988024155   T   T   T
  0.4456151022750307  0.5304513243907181  0.5003249795976452   T   T   T
  0.4280325875491087  0.5000017941377219  0.5004396125309065   T   T   T
  0.4456130827837380  0.4695520228717368  0.5003180904925565   T   T   T
  0.4801744918117483  0.4691932089580520  0.5001018307865941   T   T   T
  0.4983038647279620  0.5000001497247962  0.4999868607751503   T   T   T
  0.5512216609358244  0.5313176079873443  0.4996990857780733   T   T   T
  0.5512197564385490  0.4686793888005075  0.4997093098483731   T   T   T
  0.5323728278089522  0.4999991103342937  0.4997771932899412   T   T   T
  0.5778897870961742  0.5256258535275182  0.4994900579433503   T   T   T
  0.5448919267609188  0.5460939197592664  0.4774349134888454   T   T   T
  0.5452228377691505  0.5459726018026650  0.5221375261147749   T   T   T
  0.5778892955855073  0.4743697785443424  0.4995159398138370   T   T   T
  0.5452063140539555  0.4540225743649255  0.5221413498453986   T   T   T
  0.5449031989395487  0.4539062359564023  0.4774391853198499   T   T   T
  0.4932783920119366  0.4453842299637359  0.5000038465422896   T   T   T
  0.4319592177707766  0.4459864749675035  0.5003856815511173   T   T   T
  0.4007877954421220  0.5000026431880965  0.5005754828223843   T   T   T
  0.4319620304979172  0.5540172007200317  0.5003977688744085   T   T   T
  0.4932811531714631  0.5546158136453304  0.5000157857820942   T   T   T
 
  0.00000000E+00  0.00000000E+00  0.00000000E+00
  0.00000000E+00  0.00000000E+00  0.00000000E+00
  0.00000000E+00  0.00000000E+00  0.00000000E+00
  0.00000000E+00  0.00000000E+00  0.00000000E+00
  0.00000000E+00  0.00000000E+00  0.00000000E+00
  0.00000000E+00  0.00000000E+00  0.00000000E+00
  0.00000000E+00  0.00000000E+00  0.00000000E+00
  0.00000000E+00  0.00000000E+00  0.00000000E+00
  0.00000000E+00  0.00000000E+00  0.00000000E+00
  0.00000000E+00  0.00000000E+00  0.00000000E+00
  0.00000000E+00  0.00000000E+00  0.00000000E+00
  0.00000000E+00  0.00000000E+00  0.00000000E+00
  0.00000000E+00  0.00000000E+00  0.00000000E+00
  0.00000000E+00  0.00000000E+00  0.00000000E+00
  0.00000000E+00  0.00000000E+00  0.00000000E+00
  0.00000000E+00  0.00000000E+00  0.00000000E+00
  0.00000000E+00  0.00000000E+00  0.00000000E+00
  0.00000000E+00  0.00000000E+00  0.00000000E+00
  0.00000000E+00  0.00000000E+00  0.00000000E+00
  0.00000000E+00  0.00000000E+00  0.00000000E+00
