C O H                                   
   1.00000000000000     
    40.0000000000000000    0.0000000000000000    0.0000000000000000
     0.0000000000000000   40.0000000000000000    0.0000000000000000
     0.0000000000000000    0.0000000000000000   40.0000000000000000
   C    O    H 
    10     1    12
Selective dynamics
Direct
  0.4856662729482272  0.5214953340695183  0.4999971898562326   T   T   T
  0.4536998095334168  0.5073383412287177  0.4999971533483786   T   T   T
  0.4496687014006688  0.4717458468139764  0.5000010037388246   T   T   T
  0.4778391850954229  0.4512661575894158  0.5000025678288694   T   T   T
  0.5096809418107611  0.4651978741412852  0.5000014501021186   T   T   T
  0.5140106425234899  0.5010394031062297  0.4999993440853925   T   T   T
  0.5465539629675485  0.5163054625275646  0.4999964145999467   T   T   T
  0.5766543136369474  0.4999109775377961  0.5000026492288311   T   T   T
  0.6092940121035617  0.5171289970960364  0.5000000816564254   T   T   T
  0.3938618006677986  0.5164255874044350  0.4999999271828875   T   T   T
  0.4279825105559135  0.5287690193686120  0.4999952085943458   T   T   T
  0.6241362183622078  0.5090995023156033  0.4781492556594264   T   T   T
  0.6241321100059802  0.5091119741136693  0.5218581035727217   T   T   T
  0.6069934525235440  0.5444425579162726  0.4999921087273757   T   T   T
  0.5773547767268397  0.4726016941841346  0.5000096771149465   T   T   T
  0.5468984032762786  0.5436479229058137  0.4999908475083114   T   T   T
  0.5313967585526663  0.4488078367135181  0.5000024168545539   T   T   T
  0.4747502951928476  0.4242236251139868  0.5000040246315026   T   T   T
  0.4248111438371612  0.4606855197380352  0.5000035498852295   T   T   T
  0.3783387374797144  0.5389069295731457  0.4999998303125903   T   T   T
  0.3890860715790674  0.5016142544862097  0.5226011111099605   T   T   T
  0.3890806483294492  0.5016110479033811  0.4774009350049395   T   T   T
  0.4881092308905229  0.5486241341526500  0.4999951493961675   T   T   T
 
  0.00000000E+00  0.00000000E+00  0.00000000E+00
  0.00000000E+00  0.00000000E+00  0.00000000E+00
  0.00000000E+00  0.00000000E+00  0.00000000E+00
  0.00000000E+00  0.00000000E+00  0.00000000E+00
  0.00000000E+00  0.00000000E+00  0.00000000E+00
  0.00000000E+00  0.00000000E+00  0.00000000E+00
  0.00000000E+00  0.00000000E+00  0.00000000E+00
  0.00000000E+00  0.00000000E+00  0.00000000E+00
  0.00000000E+00  0.00000000E+00  0.00000000E+00
  0.00000000E+00  0.00000000E+00  0.00000000E+00
  0.00000000E+00  0.00000000E+00  0.00000000E+00
  0.00000000E+00  0.00000000E+00  0.00000000E+00
  0.00000000E+00  0.00000000E+00  0.00000000E+00
  0.00000000E+00  0.00000000E+00  0.00000000E+00
  0.00000000E+00  0.00000000E+00  0.00000000E+00
  0.00000000E+00  0.00000000E+00  0.00000000E+00
  0.00000000E+00  0.00000000E+00  0.00000000E+00
  0.00000000E+00  0.00000000E+00  0.00000000E+00
  0.00000000E+00  0.00000000E+00  0.00000000E+00
  0.00000000E+00  0.00000000E+00  0.00000000E+00
  0.00000000E+00  0.00000000E+00  0.00000000E+00
  0.00000000E+00  0.00000000E+00  0.00000000E+00
  0.00000000E+00  0.00000000E+00  0.00000000E+00
