C H                                     
   1.00000000000000     
    40.0000000000000000    0.0000000000000000    0.0000000000000000
     0.0000000000000000   40.0000000000000000    0.0000000000000000
     0.0000000000000000    0.0000000000000000   40.0000000000000000
   C    H 
    10     8
Selective dynamics
Direct
  0.5606460842599776  0.4823374606912725  0.5000000000000000   T   T   T
  0.5606460842599776  0.5176615393087229  0.5000000000000000   T   T   T
  0.5310010145814482  0.5350331819642984  0.5000000000000000   T   T   T
  0.5000000000000000  0.5179058791807862  0.5000000000000000   T   T   T
  0.4689989854185517  0.5350331819642984  0.5000000000000000   T   T   T
  0.4393539157400224  0.5176625393087275  0.5000000000000000   T   T   T
  0.4393539157400224  0.4823384606912771  0.5000000000000000   T   T   T
  0.4689989854185517  0.4649668180357016  0.5000000000000000   T   T   T
  0.5000000000000000  0.4820941208192138  0.5000000000000000   T   T   T
  0.5310010145814482  0.4649668180357016  0.5000000000000000   T   T   T
  0.5309480877781239  0.4378227391134573  0.5000000000000000   T   T   T
  0.4690509122218784  0.4378237391134547  0.5000000000000000   T   T   T
  0.4157654007436760  0.4689719670152089  0.5000000000000000   T   T   T
  0.4157664007436806  0.5310290329847956  0.5000000000000000   T   T   T
  0.4690519122218759  0.5621772608865427  0.5000000000000000   T   T   T
  0.5309490877781213  0.5621762608865453  0.5000000000000000   T   T   T
  0.5842345992563240  0.5310280329847911  0.5000000000000000   T   T   T
  0.5842335992563195  0.4689709670152044  0.5000000000000000   T   T   T
 
  0.00000000E+00  0.00000000E+00  0.00000000E+00
  0.00000000E+00  0.00000000E+00  0.00000000E+00
  0.00000000E+00  0.00000000E+00  0.00000000E+00
  0.00000000E+00  0.00000000E+00  0.00000000E+00
  0.00000000E+00  0.00000000E+00  0.00000000E+00
  0.00000000E+00  0.00000000E+00  0.00000000E+00
  0.00000000E+00  0.00000000E+00  0.00000000E+00
  0.00000000E+00  0.00000000E+00  0.00000000E+00
  0.00000000E+00  0.00000000E+00  0.00000000E+00
  0.00000000E+00  0.00000000E+00  0.00000000E+00
  0.00000000E+00  0.00000000E+00  0.00000000E+00
  0.00000000E+00  0.00000000E+00  0.00000000E+00
  0.00000000E+00  0.00000000E+00  0.00000000E+00
  0.00000000E+00  0.00000000E+00  0.00000000E+00
  0.00000000E+00  0.00000000E+00  0.00000000E+00
  0.00000000E+00  0.00000000E+00  0.00000000E+00
  0.00000000E+00  0.00000000E+00  0.00000000E+00
  0.00000000E+00  0.00000000E+00  0.00000000E+00
