C H                                     
   1.00000000000000     
    40.0000000000000000    0.0000000000000000    0.0000000000000000
     0.0000000000000000   40.0000000000000000    0.0000000000000000
     0.0000000000000000    0.0000000000000000   40.0000000000000000
   C    H 
    14    12
Selective dynamics
Direct
  0.5606129457175679  0.4776803845597846  0.5150631650080310   T   T   T
  0.5315414390629666  0.4903506927241741  0.4991310210147274   T   T   T
  0.5335663223687575  0.5211497435601161  0.4815144107188203   T   T   T
  0.5635302255611042  0.5385830488659312  0.4800338658447143   T   T   T
  0.5918887830864594  0.5259835427450891  0.4963812298165283   T   T   T
  0.5902491895099605  0.4956165227215332  0.5140264933856441   T   T   T
  0.5000000000000000  0.4720983054172130  0.5000000000000000   T   T   T
  0.5000000000000000  0.4374077209692686  0.4999990000000025   T   T   T
  0.4684585609370405  0.4903506927241741  0.5008689789852725   T   T   T
  0.4393870542824320  0.4776813845597891  0.4849368349919690   T   T   T
  0.4097508104900395  0.4956175227215307  0.4859735066143558   T   T   T
  0.4081112169135407  0.5259845427450865  0.5036187701834717   T   T   T
  0.4364697744388957  0.5385830488659312  0.5199671341552974   T   T   T
  0.4664336776312425  0.5211497435601161  0.5184865892811771   T   T   T
  0.6122862013373993  0.4862523246967693  0.5270278292765244   T   T   T
  0.6154145677644534  0.5397031206289299  0.4952116498166936   T   T   T
  0.5650716183817794  0.5618368607011380  0.4659243457612706   T   T   T
  0.5117114075273745  0.5303377375824162  0.4680792606189216   T   T   T
  0.4767254870935257  0.4232929734787578  0.4993472207580227   T   T   T
  0.5232735129064768  0.4232919734787532  0.5006507792419822   T   T   T
  0.4882885924726256  0.5303367375824187  0.5319217393810759   T   T   T
  0.4349283816182205  0.5618358607011406  0.5340776542387243   T   T   T
  0.3845854322355467  0.5397041206289345  0.5047893501833038   T   T   T
  0.3877137986626006  0.4862533246967667  0.4729711707234781   T   T   T
  0.4407072267564900  0.4544585345421305  0.4707539667430299   T   T   T
  0.5592927732435100  0.4544575345421330  0.5292440332569681   T   T   T
 
  0.00000000E+00  0.00000000E+00  0.00000000E+00
  0.00000000E+00  0.00000000E+00  0.00000000E+00
  0.00000000E+00  0.00000000E+00  0.00000000E+00
  0.00000000E+00  0.00000000E+00  0.00000000E+00
  0.00000000E+00  0.00000000E+00  0.00000000E+00
  0.00000000E+00  0.00000000E+00  0.00000000E+00
  0.00000000E+00  0.00000000E+00  0.00000000E+00
  0.00000000E+00  0.00000000E+00  0.00000000E+00
  0.00000000E+00  0.00000000E+00  0.00000000E+00
  0.00000000E+00  0.00000000E+00  0.00000000E+00
  0.00000000E+00  0.00000000E+00  0.00000000E+00
  0.00000000E+00  0.00000000E+00  0.00000000E+00
  0.00000000E+00  0.00000000E+00  0.00000000E+00
  0.00000000E+00  0.00000000E+00  0.00000000E+00
  0.00000000E+00  0.00000000E+00  0.00000000E+00
  0.00000000E+00  0.00000000E+00  0.00000000E+00
  0.00000000E+00  0.00000000E+00  0.00000000E+00
  0.00000000E+00  0.00000000E+00  0.00000000E+00
  0.00000000E+00  0.00000000E+00  0.00000000E+00
  0.00000000E+00  0.00000000E+00  0.00000000E+00
  0.00000000E+00  0.00000000E+00  0.00000000E+00
  0.00000000E+00  0.00000000E+00  0.00000000E+00
  0.00000000E+00  0.00000000E+00  0.00000000E+00
  0.00000000E+00  0.00000000E+00  0.00000000E+00
  0.00000000E+00  0.00000000E+00  0.00000000E+00
  0.00000000E+00  0.00000000E+00  0.00000000E+00
