C O H                                   
   1.00000000000000     
    40.0000000000000000    0.0000000000000000    0.0000000000000000
     0.0000000000000000   40.0000000000000000    0.0000000000000000
     0.0000000000000000    0.0000000000000000   40.0000000000000000
   C    O    H 
    12     1    10
Selective dynamics
Direct
  0.5334572714093302  0.4843550724895362  0.5170672750031879   T   T   T
  0.5648212409255151  0.4696073707122554  0.5174607630646810   T   T   T
  0.5920816356999424  0.4856110493761821  0.5021062680679502   T   T   T
  0.5881447435915774  0.5171384658172123  0.4868618365648426   T   T   T
  0.5571640560095943  0.5326043354567939  0.4865744972930182   T   T   T
  0.5298466745708031  0.5155974716888363  0.5009407780499523   T   T   T
  0.4701573635641129  0.5156056771938401  0.4990531964657505   T   T   T
  0.4428443953015347  0.5326161838106793  0.5134222727095895   T   T   T
  0.4118631426583503  0.5171552068480594  0.5131412107054644   T   T   T
  0.4079142439715630  0.4856261799791561  0.4978978832883209   T   T   T
  0.4351725738837900  0.4696219113788112  0.4825397780040637   T   T   T
  0.4665372601446546  0.4843645762870296  0.4829289239890701   T   T   T
  0.4999986281018809  0.5321624461920479  0.4999960573929559   T   T   T
  0.4876156829424805  0.4730819431574633  0.4699049797580929   T   T   T
  0.4316137105385208  0.4458479185313221  0.4697352396937583   T   T   T
  0.3833670022655337  0.4738247814960432  0.4974667156381702   T   T   T
  0.3905024971188360  0.5293693422184657  0.5248228797430808   T   T   T
  0.4468741882065737  0.5568826130876187  0.5250978527029284   T   T   T
  0.5531384631678321  0.5568690416980873  0.4749008586813207   T   T   T
  0.6095043199559661  0.5293458848538264  0.4751840064142311   T   T   T
  0.6166292576631499  0.4738020590001867  0.5025413022329980   T   T   T
  0.5683731289852029  0.4458338525358205  0.5302666820953340   T   T   T
  0.5123765193232747  0.4730776161906530  0.5300877424412339   T   T   T
 
  0.00000000E+00  0.00000000E+00  0.00000000E+00
  0.00000000E+00  0.00000000E+00  0.00000000E+00
  0.00000000E+00  0.00000000E+00  0.00000000E+00
  0.00000000E+00  0.00000000E+00  0.00000000E+00
  0.00000000E+00  0.00000000E+00  0.00000000E+00
  0.00000000E+00  0.00000000E+00  0.00000000E+00
  0.00000000E+00  0.00000000E+00  0.00000000E+00
  0.00000000E+00  0.00000000E+00  0.00000000E+00
  0.00000000E+00  0.00000000E+00  0.00000000E+00
  0.00000000E+00  0.00000000E+00  0.00000000E+00
  0.00000000E+00  0.00000000E+00  0.00000000E+00
  0.00000000E+00  0.00000000E+00  0.00000000E+00
  0.00000000E+00  0.00000000E+00  0.00000000E+00
  0.00000000E+00  0.00000000E+00  0.00000000E+00
  0.00000000E+00  0.00000000E+00  0.00000000E+00
  0.00000000E+00  0.00000000E+00  0.00000000E+00
  0.00000000E+00  0.00000000E+00  0.00000000E+00
  0.00000000E+00  0.00000000E+00  0.00000000E+00
  0.00000000E+00  0.00000000E+00  0.00000000E+00
  0.00000000E+00  0.00000000E+00  0.00000000E+00
  0.00000000E+00  0.00000000E+00  0.00000000E+00
  0.00000000E+00  0.00000000E+00  0.00000000E+00
  0.00000000E+00  0.00000000E+00  0.00000000E+00
