C N O H                                 
   1.00000000000000     
    40.0000000000000000    0.0000000000000000    0.0000000000000000
     0.0000000000000000   40.0000000000000000    0.0000000000000000
     0.0000000000000000    0.0000000000000000   40.0000000000000000
   C    N    O    H 
    10     1     1    13
Selective dynamics
Direct
  0.4673410143108256  0.5296528352288163  0.5016205187152636   T   T   T
  0.4337397059717532  0.5330249516648848  0.4928101817898494   T   T   T
  0.4128559279657935  0.5051852036420144  0.4901802377959754   T   T   T
  0.4263822048626267  0.4736100520543900  0.4968437786957978   T   T   T
  0.4597761563271234  0.4699068312817332  0.5058898954799389   T   T   T
  0.4812753740455236  0.4979062385740889  0.5085412693488820   T   T   T
  0.5341818773170459  0.4651333324667632  0.5079372411356928   T   T   T
  0.5558825076567331  0.4747710282050903  0.4778882504568074   T   T   T
  0.5573086666804627  0.5312189828482516  0.4952493884992464   T   T   T
  0.5359118162909979  0.5224697014245478  0.5256667996735587   T   T   T
  0.5143444889268025  0.4938204666052783  0.5190105612760973   T   T   T
  0.5768979089047193  0.5028751511252878  0.4851961207324180   T   T   T
  0.5503693332642854  0.4569456154915201  0.5287014379827255   T   T   T
  0.5179760910289701  0.4441396750856654  0.5011301395588035   T   T   T
  0.5395847517886878  0.4806292102453611  0.4562537448063040   T   T   T
  0.5727308315662327  0.4542018584399656  0.4709844428753840   T   T   T
  0.5751901750811257  0.5512225739555419  0.5011058508182131   T   T   T
  0.5412372250001383  0.5394274341271625  0.4742404005272007   T   T   T
  0.5210835665525195  0.5439554170386032  0.5340250929241535   T   T   T
  0.5527547783297848  0.5155594385239439  0.5464017784513615   T   T   T
  0.4690832349134197  0.4449921992020478  0.5118128103850594   T   T   T
  0.4105872242214943  0.4514050439596247  0.4953753631799245   T   T   T
  0.3866815400823640  0.5079599376984802  0.4831416733769416   T   T   T
  0.4239937247538919  0.5579615389931618  0.4875123912915171   T   T   T
  0.4828268741566788  0.5520262821177937  0.5024816302228601   T   T   T
 
  0.00000000E+00  0.00000000E+00  0.00000000E+00
  0.00000000E+00  0.00000000E+00  0.00000000E+00
  0.00000000E+00  0.00000000E+00  0.00000000E+00
  0.00000000E+00  0.00000000E+00  0.00000000E+00
  0.00000000E+00  0.00000000E+00  0.00000000E+00
  0.00000000E+00  0.00000000E+00  0.00000000E+00
  0.00000000E+00  0.00000000E+00  0.00000000E+00
  0.00000000E+00  0.00000000E+00  0.00000000E+00
  0.00000000E+00  0.00000000E+00  0.00000000E+00
  0.00000000E+00  0.00000000E+00  0.00000000E+00
  0.00000000E+00  0.00000000E+00  0.00000000E+00
  0.00000000E+00  0.00000000E+00  0.00000000E+00
  0.00000000E+00  0.00000000E+00  0.00000000E+00
  0.00000000E+00  0.00000000E+00  0.00000000E+00
  0.00000000E+00  0.00000000E+00  0.00000000E+00
  0.00000000E+00  0.00000000E+00  0.00000000E+00
  0.00000000E+00  0.00000000E+00  0.00000000E+00
  0.00000000E+00  0.00000000E+00  0.00000000E+00
  0.00000000E+00  0.00000000E+00  0.00000000E+00
  0.00000000E+00  0.00000000E+00  0.00000000E+00
  0.00000000E+00  0.00000000E+00  0.00000000E+00
  0.00000000E+00  0.00000000E+00  0.00000000E+00
  0.00000000E+00  0.00000000E+00  0.00000000E+00
  0.00000000E+00  0.00000000E+00  0.00000000E+00
  0.00000000E+00  0.00000000E+00  0.00000000E+00
