!TPSSh aug-cc-pVTZ d3 TightSCF SlowConv RIJCOSX defgrid2
 
%pal
nprocs 4
end
 
%scf
MaxIter 1500
end
 
%maxcore 3000
 
!CPCM
%cpcm smd true
SMDsolvent "MeCN"
surfacetype gepol_ses
rsolv 2.19
end 
 
* xyz 0 1
C          -1.64824126618017      1.17962905218596     -0.27640852251821
C          -2.36732067057951      0.01222657741033      0.01013723312640
C          -1.65681369830039     -1.16061817519344      0.29208568093245
C          -0.26626323928183     -1.16443624467977      0.28791791148105
C           0.45854663028887      0.00217454247658      0.00256283796462
C          -0.26127971202858      1.17549258128224     -0.27984384623215
H           0.28089631587743      2.09137892779172     -0.53113220855770
C           1.93696149154138     -0.00279971672945      0.00051608331538
C           2.65303791085162     -1.10978954515941     -0.47925860702356
C           4.04531433476339     -1.11398347683307     -0.48167578797554
C           4.75102098587613     -0.01129559121339     -0.00116086906809
C           4.05248382144489      1.09572154879970      0.47984618566416
C           2.66020581714669      1.10014601648294      0.47888547594482
H           2.12182100458790      1.96339836557137      0.88035790986018
H           4.59686021513246      1.96228462828998      0.86676809069055
H           5.84493441172309     -0.01451276377516     -0.00190011189447
H           4.58410302781916     -1.98346854512299     -0.86991334409081
H           2.10898948157834     -1.96925435572582     -0.88135237996202
H           0.27006313897588     -2.08418650265354      0.53693846273009
H          -2.18747776526920     -2.08664808126969      0.52830693817217
C          -3.86122618809550      0.08310521129981     -0.00075253917882
O          -4.42728606147296      1.12411459370127     -0.25389321491014
C          -4.64225327233386     -1.17234258475983      0.31143142335015
H          -5.71614646164934     -0.94073069402301      0.26216108811743
H          -4.40777348323050     -1.97432489828778     -0.41030103402591
H          -4.39571168425506     -1.55218269043734      1.31835323175607
H          -2.21343058493032      2.08711072057180     -0.50408998766811
*
