!PBE0 opt def2-SV(p) d3 TightSCF SlowConv RIJCOSX defgrid2

%pal
nprocs 8
end

%scf
MaxIter 1500
end

%maxcore 3500

!CPCM
%cpcm smd true
SMDsolvent "MeCN"
surfacetype gepol_ses
rsolv 2.19
end 

* xyz 0 1
C           0.86930262577353     -1.20261880029345      0.00017105333715
C           1.23795362702926      0.14976029336823      0.00011888618076
C           0.20861669065532      1.10178711313028      0.00004997159606
C          -1.14266539481067      0.75277814049696     -0.00001496332606
C          -1.49510132454858     -0.61091836423424      0.00001993066330
C          -0.47134803669840     -1.56560486246111      0.00011663608289
H          -0.73825756953350     -2.62759517616832      0.00016986000597
C          -2.93561352812274     -1.03199819846802     -0.00003268925957
H          -3.03042597379354     -2.12984128685189      0.00005376751285
H          -3.47239583982485     -0.64683793793607     -0.88649052066934
H          -3.47250072897996     -0.64668878799144      0.88629702354134
C          -2.20261220725801      1.81656948866912     -0.00009254079027
H          -2.85825633400454      1.73802365829102      0.88648022833246
H          -2.85834169985167      1.73782693594634     -0.88658224699833
H          -1.75673523006564      2.82424393630291     -0.00022124376864
H           0.47747434540426      2.16407970597621      0.00002545328680
C           2.63224685704945      0.60848489545892      0.00012709034736
C           3.73948848691454     -0.14591897511127     -0.00036178438147
H           3.70645882304827     -1.24152951701146     -0.00086807767724
H           4.73244049250843      0.31559854639130     -0.00029313441000
H           2.75218557093434      1.69979268676539      0.00055539249904
H           1.63531784817470     -1.98284589426942      0.00029190789491
*
