C N H                                   
   1.00000000000000     
    25.0000000000000000    0.0000000000000000    0.0000000000000000
     0.0000000000000000   25.0000000000000000    0.0000000000000000
     0.0000000000000000    0.0000000000000000   25.0000000000000000
   C    N    H 
    10     2     8
Selective dynamics
Direct
  0.4960029379731057  0.4996871846207246  0.3597605248894986   T   T   T
  0.4925435581648136  0.4978300369449633  0.5295599593080359   T   T   T
  0.5396762263784968  0.4951992320559309  0.5601580883123959   T   T   T
  0.5359267010367020  0.4940053245855333  0.6158240667392805   T   T   T
  0.4853710789726375  0.4955275619825742  0.6394856780946018   T   T   T
  0.4406993522169495  0.4980071456535486  0.6059323099739758   T   T   T
  0.4947861918628805  0.4989361815732732  0.4699099367218172   T   T   T
  0.5371110815688559  0.5244550471168292  0.4430357303195274   T   T   T
  0.5376335753412173  0.5247878390000105  0.3872323082777873   T   T   T
  0.4555258616529309  0.4754171834803910  0.3897566789203016   T   T   T
  0.4435661962872064  0.4991479789919773  0.5523426165940559   T   T   T
  0.4543832847958918  0.4747388097275799  0.4434164001773779   T   T   T
  0.5786544344420670  0.4931735856127893  0.5407346151395668   T   T   T
  0.5719605898715505  0.4916067854147135  0.6403029910824933   T   T   T
  0.4803938054098539  0.4946538168807113  0.6828069063264186   T   T   T
  0.4004333606487472  0.4992277719292054  0.6230008461978678   T   T   T
  0.5686766507182424  0.5445936194238645  0.4653875095412995   T   T   T
  0.5698589333923605  0.5446735517079261  0.3655545215163219   T   T   T
  0.4945647990098134  0.4989348327728104  0.3161678000584498   T   T   T
  0.4222303802556801  0.4553975105246414  0.3696295118089216   T   T   T
 
  0.00000000E+00  0.00000000E+00  0.00000000E+00
  0.00000000E+00  0.00000000E+00  0.00000000E+00
  0.00000000E+00  0.00000000E+00  0.00000000E+00
  0.00000000E+00  0.00000000E+00  0.00000000E+00
  0.00000000E+00  0.00000000E+00  0.00000000E+00
  0.00000000E+00  0.00000000E+00  0.00000000E+00
  0.00000000E+00  0.00000000E+00  0.00000000E+00
  0.00000000E+00  0.00000000E+00  0.00000000E+00
  0.00000000E+00  0.00000000E+00  0.00000000E+00
  0.00000000E+00  0.00000000E+00  0.00000000E+00
  0.00000000E+00  0.00000000E+00  0.00000000E+00
  0.00000000E+00  0.00000000E+00  0.00000000E+00
  0.00000000E+00  0.00000000E+00  0.00000000E+00
  0.00000000E+00  0.00000000E+00  0.00000000E+00
  0.00000000E+00  0.00000000E+00  0.00000000E+00
  0.00000000E+00  0.00000000E+00  0.00000000E+00
  0.00000000E+00  0.00000000E+00  0.00000000E+00
  0.00000000E+00  0.00000000E+00  0.00000000E+00
  0.00000000E+00  0.00000000E+00  0.00000000E+00
  0.00000000E+00  0.00000000E+00  0.00000000E+00
