C N H                                   
   1.00000000000000     
    40.0000000000000000    0.0000000000000000    0.0000000000000000
     0.0000000000000000   40.0000000000000000    0.0000000000000000
     0.0000000000000000    0.0000000000000000   40.0000000000000000
   C    N    H 
     6     1    15
Selective dynamics
Direct
  0.4747355011151484  0.5012828816494661  0.5212999678890782   T   T   T
  0.4404674431971358  0.4979495873786064  0.5037070227563589   T   T   T
  0.5150606632770689  0.4754055238483659  0.4796349212697990   T   T   T
  0.5140148774130822  0.4424945171547847  0.4985718403228105   T   T   T
  0.5128725066617861  0.5371676290474952  0.4872929065896088   T   T   T
  0.5431260306785148  0.5474638030249181  0.5089128134218441   T   T   T
  0.5012359126145540  0.5042249103042877  0.4968895395282473   T   T   T
  0.4212097688054541  0.4964311906799992  0.5231559774843788   T   T   T
  0.4393166618552016  0.4752508854503859  0.4883860342814046   T   T   T
  0.4353779306695600  0.5197880293674473  0.4879398300100846   T   T   T
  0.4794008072086484  0.4793257295068329  0.5370797136611714   T   T   T
  0.4751477818352754  0.5238221257049531  0.5369472953583738   T   T   T
  0.4884545066233557  0.4338626296700099  0.5034553019934052   T   T   T
  0.5262676087504232  0.4234688836130047  0.4830960018632737   T   T   T
  0.5277173991647430  0.4441737435163162  0.5222895663554112   T   T   T
  0.5010332038266370  0.4733776940256220  0.4557502808426008   T   T   T
  0.5407102801679926  0.4821721395565746  0.4722727567887262   T   T   T
  0.5638793332839001  0.5298084938171712  0.5058286960544720   T   T   T
  0.5363363516176420  0.5488696919948808  0.5354329250583660   T   T   T
  0.5513883911894766  0.5722349264057982  0.5005764341145493   T   T   T
  0.5200039019898455  0.5364579001922820  0.4607806894808419   T   T   T
  0.4922441380545166  0.5549680840907953  0.4906994848751651   T   T   T
 
  0.00000000E+00  0.00000000E+00  0.00000000E+00
  0.00000000E+00  0.00000000E+00  0.00000000E+00
  0.00000000E+00  0.00000000E+00  0.00000000E+00
  0.00000000E+00  0.00000000E+00  0.00000000E+00
  0.00000000E+00  0.00000000E+00  0.00000000E+00
  0.00000000E+00  0.00000000E+00  0.00000000E+00
  0.00000000E+00  0.00000000E+00  0.00000000E+00
  0.00000000E+00  0.00000000E+00  0.00000000E+00
  0.00000000E+00  0.00000000E+00  0.00000000E+00
  0.00000000E+00  0.00000000E+00  0.00000000E+00
  0.00000000E+00  0.00000000E+00  0.00000000E+00
  0.00000000E+00  0.00000000E+00  0.00000000E+00
  0.00000000E+00  0.00000000E+00  0.00000000E+00
  0.00000000E+00  0.00000000E+00  0.00000000E+00
  0.00000000E+00  0.00000000E+00  0.00000000E+00
  0.00000000E+00  0.00000000E+00  0.00000000E+00
  0.00000000E+00  0.00000000E+00  0.00000000E+00
  0.00000000E+00  0.00000000E+00  0.00000000E+00
  0.00000000E+00  0.00000000E+00  0.00000000E+00
  0.00000000E+00  0.00000000E+00  0.00000000E+00
  0.00000000E+00  0.00000000E+00  0.00000000E+00
  0.00000000E+00  0.00000000E+00  0.00000000E+00
