C N H                                   
   1.00000000000000     
    40.0000000000000000    0.0000000000000000    0.0000000000000000
     0.0000000000000000   40.0000000000000000    0.0000000000000000
     0.0000000000000000    0.0000000000000000   40.0000000000000000
   C    N    H 
     8     2     4
Selective dynamics
Direct
  0.4694216179442607  0.4896621222702867  0.4999974936223244   T   T   T
  0.4693892582019504  0.5260849139667907  0.5000054249879268   T   T   T
  0.5000015440190961  0.5428194662391932  0.4999992166990673   T   T   T
  0.5306116781413907  0.5260824573006483  0.4999899212328532   T   T   T
  0.5305776172626160  0.4896597148558989  0.4999931245155863   T   T   T
  0.4999986259727326  0.4723759321750612  0.4999932157976314   T   T   T
  0.5608487991542330  0.4717573759823590  0.5000077054915417   T   T   T
  0.4391515412419164  0.4717619942286408  0.4999979711839644   T   T   T
  0.5867863958648731  0.4576297061843045  0.5000199794785548   T   T   T
  0.4132096114751506  0.4576327493234675  0.4999988055293538   T   T   T
  0.4999978511401971  0.4450909361334371  0.4999940816029302   T   T   T
  0.5542218908964480  0.5396447071166511  0.4999897686842859   T   T   T
  0.5000018144493446  0.5701517972870236  0.5000024689185260   T   T   T
  0.4457797542358173  0.5396481269362253  0.5000118222554369   T   T   T
 
  0.00000000E+00  0.00000000E+00  0.00000000E+00
  0.00000000E+00  0.00000000E+00  0.00000000E+00
  0.00000000E+00  0.00000000E+00  0.00000000E+00
  0.00000000E+00  0.00000000E+00  0.00000000E+00
  0.00000000E+00  0.00000000E+00  0.00000000E+00
  0.00000000E+00  0.00000000E+00  0.00000000E+00
  0.00000000E+00  0.00000000E+00  0.00000000E+00
  0.00000000E+00  0.00000000E+00  0.00000000E+00
  0.00000000E+00  0.00000000E+00  0.00000000E+00
  0.00000000E+00  0.00000000E+00  0.00000000E+00
  0.00000000E+00  0.00000000E+00  0.00000000E+00
  0.00000000E+00  0.00000000E+00  0.00000000E+00
  0.00000000E+00  0.00000000E+00  0.00000000E+00
  0.00000000E+00  0.00000000E+00  0.00000000E+00
