C H                                     
   1.00000000000000     
    40.0000000000000000    0.0000000000000000    0.0000000000000000
     0.0000000000000000   40.0000000000000000    0.0000000000000000
     0.0000000000000000    0.0000000000000000   40.0000000000000000
   C    H 
    12    14
Selective dynamics
Direct
  0.5476092800670713  0.4686045942752344  0.4943354742803550   T   T   T
  0.5822162697151967  0.4690017238588879  0.4948299737485726   T   T   T
  0.5993639495458822  0.4989463929215248  0.5013131145495748   T   T   T
  0.5815617888375613  0.5288359712419108  0.5066701341226434   T   T   T
  0.5470018532602481  0.5288776471016874  0.5054507129206556   T   T   T
  0.5289900600388719  0.4986656864775370  0.4996227591101672   T   T   T
  0.4929215390686181  0.4990413696032761  0.4991738157985566   T   T   T
  0.4749534516526808  0.4694129003293241  0.5044355170530253   T   T   T
  0.4384002246522414  0.4677701450449661  0.5077503176513432   T   T   T
  0.4203534064568757  0.5014628867185564  0.5082062494853972   T   T   T
  0.4375771077279396  0.5259120284284720  0.4844419999909064   T   T   T
  0.4741013158206258  0.5312088292157853  0.4947178774819676   T   T   T
  0.4872392042545641  0.5470541502967663  0.4765176963098625   T   T   T
  0.4749496953343098  0.5450084481354835  0.5186741616418971   T   T   T
  0.4247109294178344  0.5501674747837200  0.4842202661601149   T   T   T
  0.4366949657555139  0.5160808326993021  0.4587029181006770   T   T   T
  0.3939935876230578  0.4979789499438994  0.5014002013525882   T   T   T
  0.4207960212908617  0.5116733582760205  0.5337765102368479   T   T   T
  0.4297549235024505  0.4520332115311021  0.4864707954571372   T   T   T
  0.4323477312936816  0.4519770726086776  0.5296094499447506   T   T   T
  0.4884157866542367  0.4458311668753154  0.5069385967234865   T   T   T
  0.5334900611367246  0.5520765808995023  0.5099075285531498   T   T   T
  0.5950665757951938  0.5519122141102173  0.5118698170346079   T   T   T
  0.6266061377198895  0.4990817868918782  0.5021604500228989   T   T   T
  0.5961455722490854  0.4460769467656931  0.4901290431583192   T   T   T
  0.5347365611288026  0.4453066309652840  0.4886746191104905   T   T   T
 
  0.00000000E+00  0.00000000E+00  0.00000000E+00
  0.00000000E+00  0.00000000E+00  0.00000000E+00
  0.00000000E+00  0.00000000E+00  0.00000000E+00
  0.00000000E+00  0.00000000E+00  0.00000000E+00
  0.00000000E+00  0.00000000E+00  0.00000000E+00
  0.00000000E+00  0.00000000E+00  0.00000000E+00
  0.00000000E+00  0.00000000E+00  0.00000000E+00
  0.00000000E+00  0.00000000E+00  0.00000000E+00
  0.00000000E+00  0.00000000E+00  0.00000000E+00
  0.00000000E+00  0.00000000E+00  0.00000000E+00
  0.00000000E+00  0.00000000E+00  0.00000000E+00
  0.00000000E+00  0.00000000E+00  0.00000000E+00
  0.00000000E+00  0.00000000E+00  0.00000000E+00
  0.00000000E+00  0.00000000E+00  0.00000000E+00
  0.00000000E+00  0.00000000E+00  0.00000000E+00
  0.00000000E+00  0.00000000E+00  0.00000000E+00
  0.00000000E+00  0.00000000E+00  0.00000000E+00
  0.00000000E+00  0.00000000E+00  0.00000000E+00
  0.00000000E+00  0.00000000E+00  0.00000000E+00
  0.00000000E+00  0.00000000E+00  0.00000000E+00
  0.00000000E+00  0.00000000E+00  0.00000000E+00
  0.00000000E+00  0.00000000E+00  0.00000000E+00
  0.00000000E+00  0.00000000E+00  0.00000000E+00
  0.00000000E+00  0.00000000E+00  0.00000000E+00
  0.00000000E+00  0.00000000E+00  0.00000000E+00
  0.00000000E+00  0.00000000E+00  0.00000000E+00
