C N H                                   
   1.00000000000000     
    40.0000000000000000    0.0000000000000000    0.0000000000000000
     0.0000000000000000   40.0000000000000000    0.0000000000000000
     0.0000000000000000    0.0000000000000000   40.0000000000000000
   C    N    H 
     9     1     7
Selective dynamics
Direct
  0.5290020731043648  0.4682339284243445  0.5000000000000000   T   T   T
  0.5592974443956930  0.4864394417647688  0.5000000000000000   T   T   T
  0.5587435582713832  0.5211832655785801  0.5000000000000000   T   T   T
  0.5279875627915778  0.5384115625341089  0.5000000000000000   T   T   T
  0.4971014236565403  0.5206074940438882  0.5000000000000000   T   T   T
  0.4394917353833677  0.5214465491135453  0.5000000000000000   T   T   T
  0.4374016760065765  0.4864311836491778  0.5000000000000000   T   T   T
  0.4669382433034492  0.4677598522420457  0.5000000000000000   T   T   T
  0.4977521100658422  0.4848892752925636  0.5000000000000000   T   T   T
  0.4684289678527470  0.5385055410282401  0.5000000000000000   T   T   T
  0.4663616311605809  0.4404979750239800  0.5000000000000000   T   T   T
  0.4130876193903764  0.4741660385627032  0.5000000000000000   T   T   T
  0.4167612735044599  0.5365282072635061  0.5000000000000000   T   T   T
  0.5270845552151764  0.5656652409346967  0.5000000000000000   T   T   T
  0.5820269819870901  0.5352822843232556  0.5000000000000000   T   T   T
  0.5829718026453079  0.4729911530488893  0.5000000000000000   T   T   T
  0.5295623412654789  0.4409600071717226  0.5000000000000000   T   T   T
 
  0.00000000E+00  0.00000000E+00  0.00000000E+00
  0.00000000E+00  0.00000000E+00  0.00000000E+00
  0.00000000E+00  0.00000000E+00  0.00000000E+00
  0.00000000E+00  0.00000000E+00  0.00000000E+00
  0.00000000E+00  0.00000000E+00  0.00000000E+00
  0.00000000E+00  0.00000000E+00  0.00000000E+00
  0.00000000E+00  0.00000000E+00  0.00000000E+00
  0.00000000E+00  0.00000000E+00  0.00000000E+00
  0.00000000E+00  0.00000000E+00  0.00000000E+00
  0.00000000E+00  0.00000000E+00  0.00000000E+00
  0.00000000E+00  0.00000000E+00  0.00000000E+00
  0.00000000E+00  0.00000000E+00  0.00000000E+00
  0.00000000E+00  0.00000000E+00  0.00000000E+00
  0.00000000E+00  0.00000000E+00  0.00000000E+00
  0.00000000E+00  0.00000000E+00  0.00000000E+00
  0.00000000E+00  0.00000000E+00  0.00000000E+00
  0.00000000E+00  0.00000000E+00  0.00000000E+00
