C H                                     
   1.00000000000000     
    40.0000000000000000    0.0000000000000000    0.0000000000000000
     0.0000000000000000   40.0000000000000000    0.0000000000000000
     0.0000000000000000    0.0000000000000000   40.0000000000000000
   C    H 
    14    12
Selective dynamics
Direct
  0.5606501579437076  0.4777034363858919  0.5150547292669041   T   T   T
  0.5315677816016865  0.4903374383977372  0.4991304409822143   T   T   T
  0.5335986505136432  0.5211501300034858  0.4815207526149852   T   T   T
  0.5635221620920425  0.5385773235985555  0.4800402235970498   T   T   T
  0.5918614393834416  0.5259753030951608  0.4963868823651917   T   T   T
  0.5902545388693526  0.4956178347420264  0.5140240986923478   T   T   T
  0.5000000000000000  0.4720969791715817  0.5000000000000000   T   T   T
  0.5000000000000000  0.4374395731550937  0.4999990000000025   T   T   T
  0.4684322183983204  0.4903374383977372  0.5008695590177856   T   T   T
  0.4393498420562922  0.4777044363858964  0.4849452707330959   T   T   T
  0.4097454611306474  0.4956188347420239  0.4859759013076523   T   T   T
  0.4081385606165583  0.5259763030951583  0.5036131176348084   T   T   T
  0.4364778379079575  0.5385773235985555  0.5199607764029619   T   T   T
  0.4664013494863568  0.5211501300034858  0.5184802473850123   T   T   T
  0.6122694591951596  0.4862761275959748  0.5270362357719358   T   T   T
  0.6153771499456774  0.5396770920439310  0.4952071130017225   T   T   T
  0.5650682217968576  0.5618212588936480  0.4659331417937659   T   T   T
  0.5117360851267942  0.5303116635508001  0.4680747664344030   T   T   T
  0.4767564081359716  0.4232762930547206  0.4993836347989968   T   T   T
  0.5232425918640309  0.4232752930547160  0.5006143652010011   T   T   T
  0.4882639148732058  0.5303106635508026  0.5319262335655945   T   T   T
  0.4349317782031425  0.5618202588936505  0.5340688582062362   T   T   T
  0.3846228500543227  0.5396780920439356  0.5047938869982749   T   T   T
  0.3877305408048403  0.4862771275959723  0.4729627642280668   T   T   T
  0.4406859468134954  0.4545063224747377  0.4707361933827889   T   T   T
  0.5593140531865046  0.4545053224747402  0.5292618066172090   T   T   T
 
  0.00000000E+00  0.00000000E+00  0.00000000E+00
  0.00000000E+00  0.00000000E+00  0.00000000E+00
  0.00000000E+00  0.00000000E+00  0.00000000E+00
  0.00000000E+00  0.00000000E+00  0.00000000E+00
  0.00000000E+00  0.00000000E+00  0.00000000E+00
  0.00000000E+00  0.00000000E+00  0.00000000E+00
  0.00000000E+00  0.00000000E+00  0.00000000E+00
  0.00000000E+00  0.00000000E+00  0.00000000E+00
  0.00000000E+00  0.00000000E+00  0.00000000E+00
  0.00000000E+00  0.00000000E+00  0.00000000E+00
  0.00000000E+00  0.00000000E+00  0.00000000E+00
  0.00000000E+00  0.00000000E+00  0.00000000E+00
  0.00000000E+00  0.00000000E+00  0.00000000E+00
  0.00000000E+00  0.00000000E+00  0.00000000E+00
  0.00000000E+00  0.00000000E+00  0.00000000E+00
  0.00000000E+00  0.00000000E+00  0.00000000E+00
  0.00000000E+00  0.00000000E+00  0.00000000E+00
  0.00000000E+00  0.00000000E+00  0.00000000E+00
  0.00000000E+00  0.00000000E+00  0.00000000E+00
  0.00000000E+00  0.00000000E+00  0.00000000E+00
  0.00000000E+00  0.00000000E+00  0.00000000E+00
  0.00000000E+00  0.00000000E+00  0.00000000E+00
  0.00000000E+00  0.00000000E+00  0.00000000E+00
  0.00000000E+00  0.00000000E+00  0.00000000E+00
  0.00000000E+00  0.00000000E+00  0.00000000E+00
  0.00000000E+00  0.00000000E+00  0.00000000E+00
