C H                                     
   1.00000000000000     
    40.0000000000000000    0.0000000000000000    0.0000000000000000
     0.0000000000000000   40.0000000000000000    0.0000000000000000
     0.0000000000000000    0.0000000000000000   40.0000000000000000
   C    H 
     7     8
Selective dynamics
Direct
  0.5522796961672829  0.4999990332935729  0.5001461813465280   T   T   T
  0.5347089839640214  0.4699776656207317  0.4999605177217334   T   T   T
  0.4999264140005041  0.4700377740101544  0.4996616713293943   T   T   T
  0.4819690126256295  0.5000021529848754  0.4995928841545701   T   T   T
  0.4444015431733518  0.5000023148005911  0.5001709837358783   T   T   T
  0.4999295604578929  0.5299647693266969  0.4996656877479002   T   T   T
  0.5347107492171291  0.5300198430703705  0.4999650552641502   T   T   T
  0.4342372358147527  0.5221794799429393  0.4879488519897173   T   T   T
  0.4342358602049287  0.4778983767209687  0.4878163839487655   T   T   T
  0.4350587465146406  0.4999232485533655  0.5258972998340150   T   T   T
  0.5481198474247444  0.5535893060946894  0.4999805620949364   T   T   T
  0.4864666516783101  0.5535384814010160  0.4994499841635518   T   T   T
  0.4864605361412674  0.4464650153812041  0.4994437771813804   T   T   T
  0.5481133008508176  0.4464071118725165  0.4999738365546529   T   T   T
  0.5793838617647147  0.4999964269263549  0.5003243229328171   T   T   T
 
  0.00000000E+00  0.00000000E+00  0.00000000E+00
  0.00000000E+00  0.00000000E+00  0.00000000E+00
  0.00000000E+00  0.00000000E+00  0.00000000E+00
  0.00000000E+00  0.00000000E+00  0.00000000E+00
  0.00000000E+00  0.00000000E+00  0.00000000E+00
  0.00000000E+00  0.00000000E+00  0.00000000E+00
  0.00000000E+00  0.00000000E+00  0.00000000E+00
  0.00000000E+00  0.00000000E+00  0.00000000E+00
  0.00000000E+00  0.00000000E+00  0.00000000E+00
  0.00000000E+00  0.00000000E+00  0.00000000E+00
  0.00000000E+00  0.00000000E+00  0.00000000E+00
  0.00000000E+00  0.00000000E+00  0.00000000E+00
  0.00000000E+00  0.00000000E+00  0.00000000E+00
  0.00000000E+00  0.00000000E+00  0.00000000E+00
  0.00000000E+00  0.00000000E+00  0.00000000E+00
