C N O H                                 
   1.00000000000000     
    40.0000000000000000    0.0000000000000000    0.0000000000000000
     0.0000000000000000   40.0000000000000000    0.0000000000000000
     0.0000000000000000    0.0000000000000000   40.0000000000000000
   C    N    O    H 
     8     1     3     7
Selective dynamics
Direct
  0.5011156664373398  0.4633732255235474  0.4999870969174232   T   T   T
  0.4668085026200663  0.4634318004134654  0.5000078637916415   T   T   T
  0.4492669521500959  0.4941131901716830  0.5000380806201042   T   T   T
  0.4673181140802726  0.5244348687561847  0.5000429500864713   T   T   T
  0.5017316007196488  0.5239076290768047  0.5000212404609492   T   T   T
  0.5198144556214058  0.4934694126167660  0.4999909575240405   T   T   T
  0.5561354947704241  0.4918960628825225  0.4999642957545412   T   T   T
  0.5758600912132864  0.5242670653530148  0.4999464981217284   T   T   T
  0.4143394545565631  0.4943670995846300  0.5000511278324536   T   T   T
  0.5714982795526923  0.4647913685472090  0.4999596747914192   T   T   T
  0.3989944828430298  0.5223299495780289  0.5000528144498387   T   T   T
  0.3986085543210272  0.4666142828081851  0.5000592264717515   T   T   T
  0.5701424347703542  0.5394972077181461  0.5219335787827060   T   T   T
  0.6024092032797352  0.5182973660022437  0.4998803238838751   T   T   T
  0.5700435967266191  0.5395347352885040  0.4780116239971120   T   T   T
  0.5150652719050682  0.5475083164986930  0.5000231487730343   T   T   T
  0.4534503573512085  0.5476426011877078  0.5000618247457497   T   T   T
  0.4524946508429588  0.4404864832371340  0.5000024015173336   T   T   T
  0.5149018362381992  0.4400413347555546  0.4999642714778365   T   T   T
 
  0.00000000E+00  0.00000000E+00  0.00000000E+00
  0.00000000E+00  0.00000000E+00  0.00000000E+00
  0.00000000E+00  0.00000000E+00  0.00000000E+00
  0.00000000E+00  0.00000000E+00  0.00000000E+00
  0.00000000E+00  0.00000000E+00  0.00000000E+00
  0.00000000E+00  0.00000000E+00  0.00000000E+00
  0.00000000E+00  0.00000000E+00  0.00000000E+00
  0.00000000E+00  0.00000000E+00  0.00000000E+00
  0.00000000E+00  0.00000000E+00  0.00000000E+00
  0.00000000E+00  0.00000000E+00  0.00000000E+00
  0.00000000E+00  0.00000000E+00  0.00000000E+00
  0.00000000E+00  0.00000000E+00  0.00000000E+00
  0.00000000E+00  0.00000000E+00  0.00000000E+00
  0.00000000E+00  0.00000000E+00  0.00000000E+00
  0.00000000E+00  0.00000000E+00  0.00000000E+00
  0.00000000E+00  0.00000000E+00  0.00000000E+00
  0.00000000E+00  0.00000000E+00  0.00000000E+00
  0.00000000E+00  0.00000000E+00  0.00000000E+00
  0.00000000E+00  0.00000000E+00  0.00000000E+00
