C N O H                                 
   1.00000000000000     
    25.0000000000000000    0.0000000000000000    0.0000000000000000
     0.0000000000000000   25.0000000000000000    0.0000000000000000
     0.0000000000000000    0.0000000000000000   25.0000000000000000
   C    N    O    H 
     9     1     2    16
Selective dynamics
Direct
  0.5144693150347800  0.5285904545965862  0.4558786636651264   T   T   T
  0.5401907491364238  0.4743964304843385  0.4409859264809653   T   T   T
  0.5496305203725405  0.4379146299411955  0.4881819389834309   T   T   T
  0.5001445593602342  0.4270834099309869  0.5210739776659058   T   T   T
  0.4718271386095099  0.4781641439670447  0.5413249083176521   T   T   T
  0.5556587481515738  0.5658343874742071  0.4837475562200341   T   T   T
  0.4908090715090158  0.5564065632602854  0.4070602653278299   T   T   T
  0.5039257919066997  0.5046465891212470  0.5874612816957173   T   T   T
  0.4147611677693926  0.4665891247702101  0.5594567466878895   T   T   T
  0.4695419695513366  0.5193440912146704  0.4962340770336501   T   T   T
  0.4303640605911601  0.5473615956568355  0.4932003980993404   T   T   T
  0.5931392021373549  0.4174718928079771  0.4978548615301548   T   T   T
  0.5778892856119737  0.4826088101937862  0.4201369245964984   T   T   T
  0.5135725890434928  0.4530622015293456  0.4130566582373633   T   T   T
  0.5100081106251301  0.4024098336080058  0.5559652659777559   T   T   T
  0.4722281344363530  0.4042549021989443  0.4957191600164753   T   T   T
  0.5362369210042125  0.6014001548605353  0.5004801179232127   T   T   T
  0.5790056332544631  0.5454850245492779  0.5146483858653236   T   T   T
  0.5832177252467829  0.5786093902118962  0.4520423472295138   T   T   T
  0.4775115679626037  0.5971450841415121  0.4161977393737599   T   T   T
  0.4572946787366818  0.5335618863181387  0.3902926819975205   T   T   T
  0.5225986613643507  0.5587259038988442  0.3769033607726777   T   T   T
  0.4879891035219562  0.5443091445617428  0.5972213030106093   T   T   T
  0.5468076507253812  0.5072783618115120  0.5792114811046918   T   T   T
  0.4982939795195350  0.4784333326432883  0.6222284667229759   T   T   T
  0.3963738660720802  0.5012853673433975  0.5788986538947353   T   T   T
  0.3896203495919238  0.4537065469991050  0.5258692069716586   T   T   T
  0.4168884491530389  0.4339227419050932  0.5886676445975311   T   T   T
 
  0.00000000E+00  0.00000000E+00  0.00000000E+00
  0.00000000E+00  0.00000000E+00  0.00000000E+00
  0.00000000E+00  0.00000000E+00  0.00000000E+00
  0.00000000E+00  0.00000000E+00  0.00000000E+00
  0.00000000E+00  0.00000000E+00  0.00000000E+00
  0.00000000E+00  0.00000000E+00  0.00000000E+00
  0.00000000E+00  0.00000000E+00  0.00000000E+00
  0.00000000E+00  0.00000000E+00  0.00000000E+00
  0.00000000E+00  0.00000000E+00  0.00000000E+00
  0.00000000E+00  0.00000000E+00  0.00000000E+00
  0.00000000E+00  0.00000000E+00  0.00000000E+00
  0.00000000E+00  0.00000000E+00  0.00000000E+00
  0.00000000E+00  0.00000000E+00  0.00000000E+00
  0.00000000E+00  0.00000000E+00  0.00000000E+00
  0.00000000E+00  0.00000000E+00  0.00000000E+00
  0.00000000E+00  0.00000000E+00  0.00000000E+00
  0.00000000E+00  0.00000000E+00  0.00000000E+00
  0.00000000E+00  0.00000000E+00  0.00000000E+00
  0.00000000E+00  0.00000000E+00  0.00000000E+00
  0.00000000E+00  0.00000000E+00  0.00000000E+00
  0.00000000E+00  0.00000000E+00  0.00000000E+00
  0.00000000E+00  0.00000000E+00  0.00000000E+00
  0.00000000E+00  0.00000000E+00  0.00000000E+00
  0.00000000E+00  0.00000000E+00  0.00000000E+00
  0.00000000E+00  0.00000000E+00  0.00000000E+00
  0.00000000E+00  0.00000000E+00  0.00000000E+00
  0.00000000E+00  0.00000000E+00  0.00000000E+00
  0.00000000E+00  0.00000000E+00  0.00000000E+00
