C N O H                                 
   1.00000000000000     
    40.0000000000000000    0.0000000000000000    0.0000000000000000
     0.0000000000000000   40.0000000000000000    0.0000000000000000
     0.0000000000000000    0.0000000000000000   40.0000000000000000
   C    N    O    H 
     8     1     3     7
Selective dynamics
Direct
  0.5011610685816663  0.4633239081373404  0.4999853173570656   T   T   T
  0.4666719738683938  0.4633009518657687  0.5000063007438911   T   T   T
  0.4489826642521493  0.4940831100559322  0.5000339281476158   T   T   T
  0.4671415913794661  0.5245468671734628  0.5000336651754154   T   T   T
  0.5017408057239408  0.5240714802044053  0.5000139562350796   T   T   T
  0.5198969922874497  0.4935302411908111  0.4999876460803989   T   T   T
  0.5564709359779556  0.4919990865783603  0.4999587268868453   T   T   T
  0.5763178813377507  0.5243256475425184  0.4999416180963721   T   T   T
  0.4139016166461857  0.4942756812444244  0.5000616825558382   T   T   T
  0.5717538623350791  0.4645603861800396  0.4999535181703294   T   T   T
  0.3981946905955809  0.5223667127418139  0.5000834989567835   T   T   T
  0.3979429855185330  0.4663185552550786  0.5000606997865944   T   T   T
  0.5704892061654760  0.5395802152051772  0.5220790066279903   T   T   T
  0.6030610953846107  0.5184089241479413  0.4998804779300414   T   T   T
  0.5703882717866762  0.5396326457845646  0.4778677079002804   T   T   T
  0.5149937459883702  0.5478998509472746  0.5000222742789688   T   T   T
  0.4534620347481422  0.5480638230574613  0.5000656873860194   T   T   T
  0.4526167958231966  0.4399987219011550  0.5000043966321286   T   T   T
  0.5148107815993797  0.4397171907864958  0.4999588910523443   T   T   T
 
  0.00000000E+00  0.00000000E+00  0.00000000E+00
  0.00000000E+00  0.00000000E+00  0.00000000E+00
  0.00000000E+00  0.00000000E+00  0.00000000E+00
  0.00000000E+00  0.00000000E+00  0.00000000E+00
  0.00000000E+00  0.00000000E+00  0.00000000E+00
  0.00000000E+00  0.00000000E+00  0.00000000E+00
  0.00000000E+00  0.00000000E+00  0.00000000E+00
  0.00000000E+00  0.00000000E+00  0.00000000E+00
  0.00000000E+00  0.00000000E+00  0.00000000E+00
  0.00000000E+00  0.00000000E+00  0.00000000E+00
  0.00000000E+00  0.00000000E+00  0.00000000E+00
  0.00000000E+00  0.00000000E+00  0.00000000E+00
  0.00000000E+00  0.00000000E+00  0.00000000E+00
  0.00000000E+00  0.00000000E+00  0.00000000E+00
  0.00000000E+00  0.00000000E+00  0.00000000E+00
  0.00000000E+00  0.00000000E+00  0.00000000E+00
  0.00000000E+00  0.00000000E+00  0.00000000E+00
  0.00000000E+00  0.00000000E+00  0.00000000E+00
  0.00000000E+00  0.00000000E+00  0.00000000E+00
