C F O H                                 
   1.00000000000000     
    40.0000000000000000    0.0000000000000000    0.0000000000000000
     0.0000000000000000   40.0000000000000000    0.0000000000000000
     0.0000000000000000    0.0000000000000000   40.0000000000000000
   C    F    O    H 
     9     3     1     7
Selective dynamics
Direct
  0.5064727200934065  0.5368193727794676  0.5000664173401167   T   T   T
  0.4721228518020634  0.5367719748035760  0.5004470477238417   T   T   T
  0.4542321254804453  0.5063045358471200  0.5010343755873304   T   T   T
  0.4723700673412369  0.4758762380817262  0.5007483046157872   T   T   T
  0.5067433574846590  0.4759810142417908  0.5003207417532972   T   T   T
  0.5254446930390116  0.5064655950529416  0.5000294157367042   T   T   T
  0.5612123726109493  0.5075262743387687  0.4997047671049732   T   T   T
  0.5806050424645371  0.4749194563990967  0.4995938413397711   T   T   T
  0.4177587861309647  0.5054848429900580  0.5001127845089799   T   T   T
  0.4043970947292960  0.4954361613341018  0.4694497214894133   T   T   T
  0.4036778730996142  0.4831354579633589  0.5223206494219402   T   T   T
  0.4030702033369579  0.5356002680767286  0.5064898166852845   T   T   T
  0.5774626553065600  0.5349792495675887  0.4995522430125443   T   T   T
  0.5751259055800320  0.4596067981770444  0.5216500183264466   T   T   T
  0.5746975449660324  0.4595154145456827  0.4777124538970658   T   T   T
  0.6072678147322714  0.4805616730161060  0.4993149669493450   T   T   T
  0.5198063714569497  0.4522176766874155  0.5002820026574580   T   T   T
  0.4589152538941484  0.4522983451089062  0.5009245083494398   T   T   T
  0.4585524258245877  0.5602441143250364  0.5003995028080359   T   T   T
  0.5200648406262977  0.5602555366635339  0.4998464206922325   T   T   T
 
  0.00000000E+00  0.00000000E+00  0.00000000E+00
  0.00000000E+00  0.00000000E+00  0.00000000E+00
  0.00000000E+00  0.00000000E+00  0.00000000E+00
  0.00000000E+00  0.00000000E+00  0.00000000E+00
  0.00000000E+00  0.00000000E+00  0.00000000E+00
  0.00000000E+00  0.00000000E+00  0.00000000E+00
  0.00000000E+00  0.00000000E+00  0.00000000E+00
  0.00000000E+00  0.00000000E+00  0.00000000E+00
  0.00000000E+00  0.00000000E+00  0.00000000E+00
  0.00000000E+00  0.00000000E+00  0.00000000E+00
  0.00000000E+00  0.00000000E+00  0.00000000E+00
  0.00000000E+00  0.00000000E+00  0.00000000E+00
  0.00000000E+00  0.00000000E+00  0.00000000E+00
  0.00000000E+00  0.00000000E+00  0.00000000E+00
  0.00000000E+00  0.00000000E+00  0.00000000E+00
  0.00000000E+00  0.00000000E+00  0.00000000E+00
  0.00000000E+00  0.00000000E+00  0.00000000E+00
  0.00000000E+00  0.00000000E+00  0.00000000E+00
  0.00000000E+00  0.00000000E+00  0.00000000E+00
  0.00000000E+00  0.00000000E+00  0.00000000E+00
