C H                                     
   1.00000000000000     
    40.0000000000000000    0.0000000000000000    0.0000000000000000
     0.0000000000000000   40.0000000000000000    0.0000000000000000
     0.0000000000000000    0.0000000000000000   40.0000000000000000
   C    H 
    14    12
Selective dynamics
Direct
  0.5601919483179855  0.4777830259079290  0.5149000326354790   T   T   T
  0.5313361482058043  0.4905927170505963  0.4992487950929931   T   T   T
  0.5333839088439774  0.5211790776235309  0.4818019725067554   T   T   T
  0.5632506478550109  0.5383281668044282  0.4801987715619786   T   T   T
  0.5913572576648481  0.5257049963733728  0.4964362513460730   T   T   T
  0.5897029242407208  0.4955023343857407  0.5138790573115890   T   T   T
  0.5000000000000000  0.4725753596279008  0.5000000000000000   T   T   T
  0.5000000000000000  0.4379402442589494  0.4999990000000025   T   T   T
  0.4686638517942027  0.4905927170505963  0.5007512049070070   T   T   T
  0.4398080516820146  0.4777840259079336  0.4850999673645209   T   T   T
  0.4102970757592793  0.4955033343857382  0.4861209426884111   T   T   T
  0.4086427423351519  0.5257059963733702  0.5035637486539271   T   T   T
  0.4367493521449892  0.5383281668044282  0.5198022284380330   T   T   T
  0.4666160911560226  0.5211790776235309  0.5181990274932421   T   T   T
  0.6116108817425583  0.4860264186515459  0.5266308535052593   T   T   T
  0.6147619936707419  0.5392774423951268  0.4953103448995199   T   T   T
  0.5648589943874126  0.5613817841317357  0.4661186826462101   T   T   T
  0.5116750961914587  0.5303789328017751  0.4685182680351535   T   T   T
  0.4768531337000945  0.4239724093192996  0.4992614017357970   T   T   T
  0.5231458662999079  0.4239714093192950  0.5007365982642009   T   T   T
  0.4883249038085413  0.5303779328017776  0.5314827319648440   T   T   T
  0.4351410056125875  0.5613807841317382  0.5338833173537920   T   T   T
  0.3852380063292580  0.5392784423951313  0.5046906551004776   T   T   T
  0.3883891182574416  0.4860274186515434  0.4733681464947432   T   T   T
  0.4411185004635891  0.4546133926115051  0.4711729936336642   T   T   T
  0.5588814995364110  0.4546123926115076  0.5288250063663337   T   T   T
 
  0.00000000E+00  0.00000000E+00  0.00000000E+00
  0.00000000E+00  0.00000000E+00  0.00000000E+00
  0.00000000E+00  0.00000000E+00  0.00000000E+00
  0.00000000E+00  0.00000000E+00  0.00000000E+00
  0.00000000E+00  0.00000000E+00  0.00000000E+00
  0.00000000E+00  0.00000000E+00  0.00000000E+00
  0.00000000E+00  0.00000000E+00  0.00000000E+00
  0.00000000E+00  0.00000000E+00  0.00000000E+00
  0.00000000E+00  0.00000000E+00  0.00000000E+00
  0.00000000E+00  0.00000000E+00  0.00000000E+00
  0.00000000E+00  0.00000000E+00  0.00000000E+00
  0.00000000E+00  0.00000000E+00  0.00000000E+00
  0.00000000E+00  0.00000000E+00  0.00000000E+00
  0.00000000E+00  0.00000000E+00  0.00000000E+00
  0.00000000E+00  0.00000000E+00  0.00000000E+00
  0.00000000E+00  0.00000000E+00  0.00000000E+00
  0.00000000E+00  0.00000000E+00  0.00000000E+00
  0.00000000E+00  0.00000000E+00  0.00000000E+00
  0.00000000E+00  0.00000000E+00  0.00000000E+00
  0.00000000E+00  0.00000000E+00  0.00000000E+00
  0.00000000E+00  0.00000000E+00  0.00000000E+00
  0.00000000E+00  0.00000000E+00  0.00000000E+00
  0.00000000E+00  0.00000000E+00  0.00000000E+00
  0.00000000E+00  0.00000000E+00  0.00000000E+00
  0.00000000E+00  0.00000000E+00  0.00000000E+00
  0.00000000E+00  0.00000000E+00  0.00000000E+00
