C N H                                   
   1.00000000000000     
    40.0000000000000000    0.0000000000000000    0.0000000000000000
     0.0000000000000000   40.0000000000000000    0.0000000000000000
     0.0000000000000000    0.0000000000000000   40.0000000000000000
   C    N    H 
     9     1     7
Selective dynamics
Direct
  0.5292737542235496  0.4680927437095667  0.5000000000000000   T   T   T
  0.5587574599510396  0.4860072706163360  0.5000000000000000   T   T   T
  0.5581423863081543  0.5214264114670006  0.5000000000000000   T   T   T
  0.5281536445547786  0.5384908555281633  0.5000000000000000   T   T   T
  0.4973713059477624  0.5208223969804928  0.5000000000000000   T   T   T
  0.4398018519424460  0.5215981899845531  0.5000000000000000   T   T   T
  0.4377031621303331  0.4862191699000353  0.5000000000000000   T   T   T
  0.4668810266291715  0.4679255350730976  0.5000000000000000   T   T   T
  0.4980080583263419  0.4848986251298152  0.5000000000000000   T   T   T
  0.4681596326458086  0.5386539845964621  0.5000000000000000   T   T   T
  0.4664383058397734  0.4406303962287025  0.5000000000000000   T   T   T
  0.4132919107927400  0.4741047135502633  0.5000000000000000   T   T   T
  0.4167922023348761  0.5363915008312173  0.5000000000000000   T   T   T
  0.5272631971727284  0.5657337103818518  0.5000000000000000   T   T   T
  0.5816556827389515  0.5352401672946907  0.5000000000000000   T   T   T
  0.5827012311027263  0.4729671970789324  0.5000000000000000   T   T   T
  0.5296061873588446  0.4407961316488285  0.5000000000000000   T   T   T
 
  0.00000000E+00  0.00000000E+00  0.00000000E+00
  0.00000000E+00  0.00000000E+00  0.00000000E+00
  0.00000000E+00  0.00000000E+00  0.00000000E+00
  0.00000000E+00  0.00000000E+00  0.00000000E+00
  0.00000000E+00  0.00000000E+00  0.00000000E+00
  0.00000000E+00  0.00000000E+00  0.00000000E+00
  0.00000000E+00  0.00000000E+00  0.00000000E+00
  0.00000000E+00  0.00000000E+00  0.00000000E+00
  0.00000000E+00  0.00000000E+00  0.00000000E+00
  0.00000000E+00  0.00000000E+00  0.00000000E+00
  0.00000000E+00  0.00000000E+00  0.00000000E+00
  0.00000000E+00  0.00000000E+00  0.00000000E+00
  0.00000000E+00  0.00000000E+00  0.00000000E+00
  0.00000000E+00  0.00000000E+00  0.00000000E+00
  0.00000000E+00  0.00000000E+00  0.00000000E+00
  0.00000000E+00  0.00000000E+00  0.00000000E+00
  0.00000000E+00  0.00000000E+00  0.00000000E+00
