C N H                                   
   1.00000000000000     
    25.0000000000000000    0.0000000000000000    0.0000000000000000
     0.0000000000000000   25.0000000000000000    0.0000000000000000
     0.0000000000000000    0.0000000000000000   25.0000000000000000
   C    N    H 
    10     2     8
Selective dynamics
Direct
  0.4952326709248990  0.5012364627759471  0.3581748320974107   T   T   T
  0.4917041873247232  0.4973773067691692  0.5286088013988463   T   T   T
  0.5377016290584841  0.5085375033497275  0.5610667586816099   T   T   T
  0.5346511743816631  0.5068859099578260  0.6162336314070626   T   T   T
  0.4852866624104299  0.4938531996565395  0.6410305322146600   T   T   T
  0.4421206804429104  0.4833685617409743  0.6068232539454117   T   T   T
  0.4937214678526497  0.4988890181271050  0.4707860869111828   T   T   T
  0.5418290134216681  0.5118544961698565  0.4422491861814941   T   T   T
  0.5426796022271783  0.5130493361245619  0.3869989892715439   T   T   T
  0.4498543213194815  0.4888625604577909  0.3886747971498087   T   T   T
  0.4435111304569918  0.4846378795185393  0.5533698707728548   T   T   T
  0.4474835474548743  0.4873226490197907  0.4420809209201302   T   T   T
  0.5759259833714772  0.5185169993123148  0.5425647176958507   T   T   T
  0.5701294424993583  0.5154993505591781  0.6402435152032464   T   T   T
  0.4807973412090764  0.4919608394080476  0.6843827664852954   T   T   T
  0.4031142331306353  0.4730409227937792  0.6242493183472142   T   T   T
  0.5786138111709397  0.5210339582618299  0.4638567172780305   T   T   T
  0.5796728169985170  0.5230314249149287  0.3659724328630817   T   T   T
  0.4937547222173326  0.5016344366731259  0.3145754556015756   T   T   T
  0.4122145621267189  0.4794061844089844  0.3680564155736855   T   T   T
 
  0.00000000E+00  0.00000000E+00  0.00000000E+00
  0.00000000E+00  0.00000000E+00  0.00000000E+00
  0.00000000E+00  0.00000000E+00  0.00000000E+00
  0.00000000E+00  0.00000000E+00  0.00000000E+00
  0.00000000E+00  0.00000000E+00  0.00000000E+00
  0.00000000E+00  0.00000000E+00  0.00000000E+00
  0.00000000E+00  0.00000000E+00  0.00000000E+00
  0.00000000E+00  0.00000000E+00  0.00000000E+00
  0.00000000E+00  0.00000000E+00  0.00000000E+00
  0.00000000E+00  0.00000000E+00  0.00000000E+00
  0.00000000E+00  0.00000000E+00  0.00000000E+00
  0.00000000E+00  0.00000000E+00  0.00000000E+00
  0.00000000E+00  0.00000000E+00  0.00000000E+00
  0.00000000E+00  0.00000000E+00  0.00000000E+00
  0.00000000E+00  0.00000000E+00  0.00000000E+00
  0.00000000E+00  0.00000000E+00  0.00000000E+00
  0.00000000E+00  0.00000000E+00  0.00000000E+00
  0.00000000E+00  0.00000000E+00  0.00000000E+00
  0.00000000E+00  0.00000000E+00  0.00000000E+00
  0.00000000E+00  0.00000000E+00  0.00000000E+00
