C O S H                                 
   1.00000000000000     
    40.0000000000000000    0.0000000000000000    0.0000000000000000
     0.0000000000000000   40.0000000000000000    0.0000000000000000
     0.0000000000000000    0.0000000000000000   40.0000000000000000
   C    O    S    H 
     7     1     1     8
Selective dynamics
Direct
  0.5516318057233309  0.5014278450168658  0.4977826673395603   T   T   T
  0.5366492446075427  0.5332020190834212  0.4991872218030832   T   T   T
  0.5020542271544899  0.5362610919065547  0.5010472274083158   T   T   T
  0.4816478291247789  0.5076678290974442  0.5019436282221722   T   T   T
  0.4964270472062371  0.4758884110962756  0.5009855622112233   T   T   T
  0.5312242270991615  0.4729874558046964  0.4987656582629872   T   T   T
  0.4262551141467301  0.4846993682941146  0.5035107039787732   T   T   T
  0.4478771279249353  0.5133848781555038  0.5036293273534851   T   T   T
  0.5955682376018518  0.4957787166032109  0.4955579581356694   T   T   T
  0.5423573629872014  0.4481030048996353  0.4976661984841922   T   T   T
  0.4813319967224939  0.4532639795507392  0.5017014078645126   T   T   T
  0.4007503205512891  0.4945872039427002  0.5043390349414306   T   T   T
  0.4296800862935814  0.4698560386656568  0.4805824385492324   T   T   T
  0.4307116145394923  0.4688244374928436  0.5255645840866177   T   T   T
  0.4903845628980458  0.5609076140744067  0.5019125777187148   T   T   T
  0.5520445076184702  0.5556971932152238  0.4987671844527854   T   T   T
  0.6034026878003522  0.5274639131007204  0.4870546191872508   T   T   T
 
  0.00000000E+00  0.00000000E+00  0.00000000E+00
  0.00000000E+00  0.00000000E+00  0.00000000E+00
  0.00000000E+00  0.00000000E+00  0.00000000E+00
  0.00000000E+00  0.00000000E+00  0.00000000E+00
  0.00000000E+00  0.00000000E+00  0.00000000E+00
  0.00000000E+00  0.00000000E+00  0.00000000E+00
  0.00000000E+00  0.00000000E+00  0.00000000E+00
  0.00000000E+00  0.00000000E+00  0.00000000E+00
  0.00000000E+00  0.00000000E+00  0.00000000E+00
  0.00000000E+00  0.00000000E+00  0.00000000E+00
  0.00000000E+00  0.00000000E+00  0.00000000E+00
  0.00000000E+00  0.00000000E+00  0.00000000E+00
  0.00000000E+00  0.00000000E+00  0.00000000E+00
  0.00000000E+00  0.00000000E+00  0.00000000E+00
  0.00000000E+00  0.00000000E+00  0.00000000E+00
  0.00000000E+00  0.00000000E+00  0.00000000E+00
  0.00000000E+00  0.00000000E+00  0.00000000E+00
