C N O H                                 
   1.00000000000000     
    40.0000000000000000    0.0000000000000000    0.0000000000000000
     0.0000000000000000   40.0000000000000000    0.0000000000000000
     0.0000000000000000    0.0000000000000000   40.0000000000000000
   C    N    O    H 
     7     1     1     7
Selective dynamics
Direct
  0.5159151840202463  0.4685197294885278  0.5000000000000000   T   T   T
  0.5503164295114777  0.4745307342959389  0.5000000000000000   T   T   T
  0.5623538243668887  0.5073351590722998  0.5000000000000000   T   T   T
  0.5397437853706680  0.5341381762690791  0.5000000000000000   T   T   T
  0.5054275143496033  0.5282637715088071  0.5000000000000000   T   T   T
  0.4930158586661050  0.4952456917232018  0.5000000000000000   T   T   T
  0.4572641371805172  0.4875578256950779  0.5000000000000000   T   T   T
  0.4349982379045855  0.5108679007566305  0.5000000000000000   T   T   T
  0.4024658258441610  0.4975309706594158  0.5000009999999975   T   T   T
  0.3882921162067438  0.5174199328783416  0.5000009999999975   T   T   T
  0.4496679232029370  0.4611531902276744  0.5000000000000000   T   T   T
  0.4879595042434584  0.5491870025943734  0.5000000000000000   T   T   T
  0.5490581140899563  0.5597817628940585  0.5000000000000000   T   T   T
  0.5892119328903744  0.5120862368484072  0.4999990000000025   T   T   T
  0.5677105456589582  0.4535242183085832  0.4999990000000025   T   T   T
  0.5066000664933097  0.4428576967795831  0.5000000000000000   T   T   T
 
  0.00000000E+00  0.00000000E+00  0.00000000E+00
  0.00000000E+00  0.00000000E+00  0.00000000E+00
  0.00000000E+00  0.00000000E+00  0.00000000E+00
  0.00000000E+00  0.00000000E+00  0.00000000E+00
  0.00000000E+00  0.00000000E+00  0.00000000E+00
  0.00000000E+00  0.00000000E+00  0.00000000E+00
  0.00000000E+00  0.00000000E+00  0.00000000E+00
  0.00000000E+00  0.00000000E+00  0.00000000E+00
  0.00000000E+00  0.00000000E+00  0.00000000E+00
  0.00000000E+00  0.00000000E+00  0.00000000E+00
  0.00000000E+00  0.00000000E+00  0.00000000E+00
  0.00000000E+00  0.00000000E+00  0.00000000E+00
  0.00000000E+00  0.00000000E+00  0.00000000E+00
  0.00000000E+00  0.00000000E+00  0.00000000E+00
  0.00000000E+00  0.00000000E+00  0.00000000E+00
  0.00000000E+00  0.00000000E+00  0.00000000E+00
