C N O H                                 
   1.00000000000000     
    40.0000000000000000    0.0000000000000000    0.0000000000000000
     0.0000000000000000   40.0000000000000000    0.0000000000000000
     0.0000000000000000    0.0000000000000000   40.0000000000000000
   C    N    O    H 
     8     1     3     7
Selective dynamics
Direct
  0.5013250756738308  0.4635091186933717  0.4999881693874304   T   T   T
  0.4667464953345878  0.4635002526352436  0.5000075374302300   T   T   T
  0.4502426215644158  0.4941029419008201  0.5000372909241350   T   T   T
  0.4671181764466391  0.5244269908842876  0.5000547120925005   T   T   T
  0.5017885887870834  0.5239730139117558  0.5000326085251586   T   T   T
  0.5191348659259627  0.4936173537087983  0.4999968422991023   T   T   T
  0.5565956086443821  0.4920073130849566  0.4999599636998460   T   T   T
  0.5760836973169959  0.5241258728408709  0.4999391247112485   T   T   T
  0.4135196634762962  0.4943478146035450  0.5000476232380443   T   T   T
  0.5706495723876474  0.4648285764213285  0.4999524440459729   T   T   T
  0.3992635790625125  0.5217084477091275  0.5000529522419688   T   T   T
  0.3989607667265087  0.4671462702875911  0.5000452948417965   T   T   T
  0.5699739908164589  0.5391582704225336  0.5219339220725426   T   T   T
  0.6026597282622164  0.5184512458595187  0.4998791553162163   T   T   T
  0.5698760117733886  0.5392003859166393  0.4780032161486130   T   T   T
  0.5151739514053122  0.5474783306921032  0.5000359758862055   T   T   T
  0.4531854837654786  0.5475733844742721  0.5000796537317965   T   T   T
  0.4524802673078041  0.4405547921509523  0.4999953854970823   T   T   T
  0.5152208553224958  0.4402936238022808  0.4999571279101269   T   T   T
 
  0.00000000E+00  0.00000000E+00  0.00000000E+00
  0.00000000E+00  0.00000000E+00  0.00000000E+00
  0.00000000E+00  0.00000000E+00  0.00000000E+00
  0.00000000E+00  0.00000000E+00  0.00000000E+00
  0.00000000E+00  0.00000000E+00  0.00000000E+00
  0.00000000E+00  0.00000000E+00  0.00000000E+00
  0.00000000E+00  0.00000000E+00  0.00000000E+00
  0.00000000E+00  0.00000000E+00  0.00000000E+00
  0.00000000E+00  0.00000000E+00  0.00000000E+00
  0.00000000E+00  0.00000000E+00  0.00000000E+00
  0.00000000E+00  0.00000000E+00  0.00000000E+00
  0.00000000E+00  0.00000000E+00  0.00000000E+00
  0.00000000E+00  0.00000000E+00  0.00000000E+00
  0.00000000E+00  0.00000000E+00  0.00000000E+00
  0.00000000E+00  0.00000000E+00  0.00000000E+00
  0.00000000E+00  0.00000000E+00  0.00000000E+00
  0.00000000E+00  0.00000000E+00  0.00000000E+00
  0.00000000E+00  0.00000000E+00  0.00000000E+00
  0.00000000E+00  0.00000000E+00  0.00000000E+00
