C N O H                                 
   1.00000000000000     
    40.0000000000000000    0.0000000000000000    0.0000000000000000
     0.0000000000000000   40.0000000000000000    0.0000000000000000
     0.0000000000000000    0.0000000000000000   40.0000000000000000
   C    N    O    H 
     8     1     3     7
Selective dynamics
Direct
  0.5013405127265824  0.4634307306204145  0.4999807635894657   T   T   T
  0.4666251464151938  0.4634026194007152  0.5000059572266353   T   T   T
  0.4499245298903045  0.4940754404560487  0.5000417648218047   T   T   T
  0.4669443197846533  0.5245023327495157  0.5000473793412439   T   T   T
  0.5017679223033947  0.5240911071250399  0.5000164379210534   T   T   T
  0.5192852030674898  0.4936374499510968  0.4999860424613424   T   T   T
  0.5568960715645895  0.4919527944152219  0.4999566894882154   T   T   T
  0.5764790759346753  0.5241995238773658  0.4999416416257995   T   T   T
  0.4129770416577673  0.4942699627883848  0.5000650633612456   T   T   T
  0.5710425406808853  0.4646039045562860  0.4999489714017451   T   T   T
  0.3986166730361560  0.5217876310135485  0.5000892110278961   T   T   T
  0.3983811124527422  0.4668819681082397  0.5000585021631611   T   T   T
  0.5703902517060464  0.5393411199909236  0.5220765651390875   T   T   T
  0.6032231411140654  0.5185067916188982  0.4998761552336867   T   T   T
  0.5702918685437524  0.5393919849822623  0.4778687167791279   T   T   T
  0.5151500578211431  0.5478089414368950  0.5000177503792144   T   T   T
  0.4529635687381635  0.5478323064477116  0.5000710196826533   T   T   T
  0.4523761650408080  0.4402395566576813  0.4999972647002862   T   T   T
  0.5153237975215894  0.4400478338037554  0.4999531036563454   T   T   T
 
  0.00000000E+00  0.00000000E+00  0.00000000E+00
  0.00000000E+00  0.00000000E+00  0.00000000E+00
  0.00000000E+00  0.00000000E+00  0.00000000E+00
  0.00000000E+00  0.00000000E+00  0.00000000E+00
  0.00000000E+00  0.00000000E+00  0.00000000E+00
  0.00000000E+00  0.00000000E+00  0.00000000E+00
  0.00000000E+00  0.00000000E+00  0.00000000E+00
  0.00000000E+00  0.00000000E+00  0.00000000E+00
  0.00000000E+00  0.00000000E+00  0.00000000E+00
  0.00000000E+00  0.00000000E+00  0.00000000E+00
  0.00000000E+00  0.00000000E+00  0.00000000E+00
  0.00000000E+00  0.00000000E+00  0.00000000E+00
  0.00000000E+00  0.00000000E+00  0.00000000E+00
  0.00000000E+00  0.00000000E+00  0.00000000E+00
  0.00000000E+00  0.00000000E+00  0.00000000E+00
  0.00000000E+00  0.00000000E+00  0.00000000E+00
  0.00000000E+00  0.00000000E+00  0.00000000E+00
  0.00000000E+00  0.00000000E+00  0.00000000E+00
  0.00000000E+00  0.00000000E+00  0.00000000E+00
