C O H                                   
   1.00000000000000     
    40.0000000000000000    0.0000000000000000    0.0000000000000000
     0.0000000000000000   40.0000000000000000    0.0000000000000000
     0.0000000000000000    0.0000000000000000   40.0000000000000000
   C    O    H 
     4     1     4
Selective dynamics
Direct
  0.4858229850548234  0.4724662732703495  0.5000000000000000   T   T   T
  0.5183885043417229  0.4820903853611972  0.5000000000000000   T   T   T
  0.5183875043417183  0.5179106146388003  0.5000000000000000   T   T   T
  0.4858209850548214  0.5275327267296458  0.5000000000000000   T   T   T
  0.4654378202382214  0.4999990000000025  0.5000000000000000   T   T   T
  0.4732266123902875  0.5513346163326343  0.5000000000000000   T   T   T
  0.5398414880940735  0.5342469594409233  0.4999990000000025   T   T   T
  0.5398434880940685  0.4657560405590760  0.5000000000000000   T   T   T
  0.4732296123902870  0.4486633836673639  0.5000000000000000   T   T   T
 
  0.00000000E+00  0.00000000E+00  0.00000000E+00
  0.00000000E+00  0.00000000E+00  0.00000000E+00
  0.00000000E+00  0.00000000E+00  0.00000000E+00
  0.00000000E+00  0.00000000E+00  0.00000000E+00
  0.00000000E+00  0.00000000E+00  0.00000000E+00
  0.00000000E+00  0.00000000E+00  0.00000000E+00
  0.00000000E+00  0.00000000E+00  0.00000000E+00
  0.00000000E+00  0.00000000E+00  0.00000000E+00
  0.00000000E+00  0.00000000E+00  0.00000000E+00
