C H                                     
   1.00000000000000     
    40.0000000000000000    0.0000000000000000    0.0000000000000000
     0.0000000000000000   40.0000000000000000    0.0000000000000000
     0.0000000000000000    0.0000000000000000   40.0000000000000000
   C    H 
    14    10
Selective dynamics
Direct
  0.6026885095991673  0.5306127876776618  0.5000038964036188   T   T   T
  0.6200173161819008  0.5000023557774542  0.4999925312071201   T   T   T
  0.6026920859429004  0.4693902831902674  0.4999863612300495   T   T   T
  0.5681246839949099  0.4691011366838057  0.4999937389270270   T   T   T
  0.5502095053476035  0.4999981177310665  0.5000034413611546   T   T   T
  0.5681212272893613  0.5308977485291958  0.5000084603134534   T   T   T
  0.5154702189851379  0.4999951612437460  0.5000130788189746   T   T   T
  0.4845291746625192  0.4999939842570969  0.5000147750275812   T   T   T
  0.4497902767130343  0.4999974949100887  0.5000061961296586   T   T   T
  0.4318755116560317  0.4691005316759125  0.5000107845314373   T   T   T
  0.3973078347263800  0.4693895625271090  0.5000070067582475   T   T   T
  0.3799826382519341  0.5000021048128929  0.4999944406761503   T   T   T
  0.3973120798855205  0.5306123853588579  0.4999877738865152   T   T   T
  0.4318791713355348  0.5308967591390523  0.4999957563104198   T   T   T
  0.5541811168788864  0.5542848017392420  0.5000146162857907   T   T   T
  0.4458193119732071  0.5542832526376481  0.4999929779449118   T   T   T
  0.3834771596543357  0.5540605419232650  0.4999810428989470   T   T   T
  0.3527309123015578  0.5000040834320442  0.4999912976039345   T   T   T
  0.3834697629384666  0.4459431466313795  0.5000113860510955   T   T   T
  0.4458120282868846  0.4457117339372150  0.5000187394851765   T   T   T
  0.5541872126833016  0.4457129291172568  0.4999910694446503   T   T   T
  0.6165294373586496  0.4459437638114713  0.4999807519270447   T   T   T
  0.6472686010256709  0.5000043552231010  0.4999918008266348   T   T   T
  0.6165232223271135  0.5540609780331766  0.5000090759503960   T   T   T
 
  0.00000000E+00  0.00000000E+00  0.00000000E+00
  0.00000000E+00  0.00000000E+00  0.00000000E+00
  0.00000000E+00  0.00000000E+00  0.00000000E+00
  0.00000000E+00  0.00000000E+00  0.00000000E+00
  0.00000000E+00  0.00000000E+00  0.00000000E+00
  0.00000000E+00  0.00000000E+00  0.00000000E+00
  0.00000000E+00  0.00000000E+00  0.00000000E+00
  0.00000000E+00  0.00000000E+00  0.00000000E+00
  0.00000000E+00  0.00000000E+00  0.00000000E+00
  0.00000000E+00  0.00000000E+00  0.00000000E+00
  0.00000000E+00  0.00000000E+00  0.00000000E+00
  0.00000000E+00  0.00000000E+00  0.00000000E+00
  0.00000000E+00  0.00000000E+00  0.00000000E+00
  0.00000000E+00  0.00000000E+00  0.00000000E+00
  0.00000000E+00  0.00000000E+00  0.00000000E+00
  0.00000000E+00  0.00000000E+00  0.00000000E+00
  0.00000000E+00  0.00000000E+00  0.00000000E+00
  0.00000000E+00  0.00000000E+00  0.00000000E+00
  0.00000000E+00  0.00000000E+00  0.00000000E+00
  0.00000000E+00  0.00000000E+00  0.00000000E+00
  0.00000000E+00  0.00000000E+00  0.00000000E+00
  0.00000000E+00  0.00000000E+00  0.00000000E+00
  0.00000000E+00  0.00000000E+00  0.00000000E+00
  0.00000000E+00  0.00000000E+00  0.00000000E+00
