C O S H                                 
   1.00000000000000     
    40.0000000000000000    0.0000000000000000    0.0000000000000000
     0.0000000000000000   40.0000000000000000    0.0000000000000000
     0.0000000000000000    0.0000000000000000   40.0000000000000000
   C    O    S    H 
     7     1     1     8
Selective dynamics
Direct
  0.5514626690452324  0.5015697817124177  0.4969242743360029   T   T   T
  0.5363864812523562  0.5338313453765327  0.4983540494547528   T   T   T
  0.5022901794511453  0.5365450729579277  0.5008191293311884   T   T   T
  0.4820832669635006  0.5072035105281298  0.5018065514409545   T   T   T
  0.4969251349880128  0.4749410165748944  0.5009534705850236   T   T   T
  0.5311448091318093  0.4723018020891744  0.4985859919888447   T   T   T
  0.4262469159788991  0.4846256641583234  0.5037099555029730   T   T   T
  0.4493238225086552  0.5126977994372359  0.5034703423194065   T   T   T
  0.5937193071576370  0.4957286286968592  0.4930490425293129   T   T   T
  0.5428520282543851  0.4477069920996658  0.4978324956486846   T   T   T
  0.4816771188409280  0.4524555665667434  0.5020905383072274   T   T   T
  0.4014384645546915  0.4959855702722523  0.5046242675725008   T   T   T
  0.4292920354741919  0.4698916971376457  0.4807742660687721   T   T   T
  0.4305992441218705  0.4691462329112213  0.5259330863692382   T   T   T
  0.4900348552795178  0.5608441023906033  0.5019122277681644   T   T   T
  0.5519012416890372  0.5561927526047289  0.4974314132480032   T   T   T
  0.6026204253080999  0.5283334644856488  0.4917268975289768   T   T   T
 
  0.00000000E+00  0.00000000E+00  0.00000000E+00
  0.00000000E+00  0.00000000E+00  0.00000000E+00
  0.00000000E+00  0.00000000E+00  0.00000000E+00
  0.00000000E+00  0.00000000E+00  0.00000000E+00
  0.00000000E+00  0.00000000E+00  0.00000000E+00
  0.00000000E+00  0.00000000E+00  0.00000000E+00
  0.00000000E+00  0.00000000E+00  0.00000000E+00
  0.00000000E+00  0.00000000E+00  0.00000000E+00
  0.00000000E+00  0.00000000E+00  0.00000000E+00
  0.00000000E+00  0.00000000E+00  0.00000000E+00
  0.00000000E+00  0.00000000E+00  0.00000000E+00
  0.00000000E+00  0.00000000E+00  0.00000000E+00
  0.00000000E+00  0.00000000E+00  0.00000000E+00
  0.00000000E+00  0.00000000E+00  0.00000000E+00
  0.00000000E+00  0.00000000E+00  0.00000000E+00
  0.00000000E+00  0.00000000E+00  0.00000000E+00
  0.00000000E+00  0.00000000E+00  0.00000000E+00
