!PBE0 def2-SV(p) Opt Freq d3 TightSCF SlowConv RIJCOSX defgrid2
 
%pal
nprocs 4
end
 
%scf
MaxIter 1500
end
 
%maxcore 3000
 

 
* xyz 1 2
C    -0.7094621    1.3934146   -0.0504386 
C    -1.8912115    0.7052452   -0.0246695 
C    -1.8912592   -0.7051119    0.0246397 
C    -0.7095645   -1.3933774    0.0505198 
C     0.5336936   -0.7242925    0.0308007 
N     1.6631242   -1.4423721    0.0698263 
H     2.5905523   -1.0441706    0.0849698 
H     1.5981450   -2.4507763    0.1113065 
C     0.5337427    0.7242285   -0.0305594 
N     1.6633181    1.4422331   -0.0697074 
H     2.5903242    1.0439875   -0.0853200 
H     1.5982467    2.4505982   -0.1112860 
H    -0.7101228   -2.4715065    0.0909668 
H    -2.8285267   -1.2369245    0.0436198 
H    -2.8284390    1.2371304   -0.0437736 
H    -0.7099412    2.4715489   -0.0909693
*
