C O H                                   
   1.00000000000000     
    25.0000000000000000    0.0000000000000000    0.0000000000000000
     0.0000000000000000   25.0000000000000000    0.0000000000000000
     0.0000000000000000    0.0000000000000000   25.0000000000000000
   C    O    H 
     7     2     6
Selective dynamics
Direct
  0.4753152784215720  0.4972270764152447  0.4280873547242321   T   T   T
  0.4299455262263510  0.4779733574162385  0.4584452547980543   T   T   T
  0.5221622417037222  0.5117040800222278  0.4589162363837698   T   T   T
  0.4317815469453067  0.4739147478793802  0.5132833721938037   T   T   T
  0.5248315693910767  0.5078915405992538  0.5138933404206246   T   T   T
  0.4786431222709419  0.4883950210472340  0.5440064082408169   T   T   T
  0.5743105769504597  0.5232906260029268  0.5443947819711120   T   T   T
  0.4797024134611405  0.4843204528018569  0.5951979779584776   T   T   T
  0.4741318659243007  0.5012518477126751  0.3768092572861409   T   T   T
  0.3939591014867553  0.4667336164153753  0.4362244546902203   T   T   T
  0.5566969394372077  0.5262899820748205  0.4362721595493437   T   T   T
  0.3971959517732876  0.4592970828481669  0.5357133458679713   T   T   T
  0.5656346976101682  0.5551529674346406  0.5735658194919667   T   T   T
  0.5897044344898050  0.4893164731305173  0.5678465120013927   T   T   T
  0.6059847339079113  0.5372401281994368  0.5173447244220635   T   T   T
 
  0.00000000E+00  0.00000000E+00  0.00000000E+00
  0.00000000E+00  0.00000000E+00  0.00000000E+00
  0.00000000E+00  0.00000000E+00  0.00000000E+00
  0.00000000E+00  0.00000000E+00  0.00000000E+00
  0.00000000E+00  0.00000000E+00  0.00000000E+00
  0.00000000E+00  0.00000000E+00  0.00000000E+00
  0.00000000E+00  0.00000000E+00  0.00000000E+00
  0.00000000E+00  0.00000000E+00  0.00000000E+00
  0.00000000E+00  0.00000000E+00  0.00000000E+00
  0.00000000E+00  0.00000000E+00  0.00000000E+00
  0.00000000E+00  0.00000000E+00  0.00000000E+00
  0.00000000E+00  0.00000000E+00  0.00000000E+00
  0.00000000E+00  0.00000000E+00  0.00000000E+00
  0.00000000E+00  0.00000000E+00  0.00000000E+00
  0.00000000E+00  0.00000000E+00  0.00000000E+00
