C F O H                                 
   1.00000000000000     
    40.0000000000000000    0.0000000000000000    0.0000000000000000
     0.0000000000000000   40.0000000000000000    0.0000000000000000
     0.0000000000000000    0.0000000000000000   40.0000000000000000
   C    F    O    H 
     8     1     1     7
Selective dynamics
Direct
  0.5100326447535607  0.5232657179234244  0.5000064272043823   T   T   T
  0.5447686290397048  0.5239867163795805  0.5000104536843847   T   T   T
  0.5615670934954450  0.4937539166538890  0.5000053953092468   T   T   T
  0.5455641678587212  0.4630173939828065  0.4999993679969189   T   T   T
  0.5109217846200039  0.4628432181854397  0.4999971018723252   T   T   T
  0.4927446293444520  0.4928071428570758  0.4999988059641235   T   T   T
  0.4555965399821197  0.4912282716798960  0.4999958309508837   T   T   T
  0.4359589502844199  0.5232657531305589  0.4999936341685789   T   T   T
  0.5956082393290625  0.4941851757523497  0.5000033021862227   T   T   T
  0.4411545654581574  0.4640334718769146  0.4999956904000586   T   T   T
  0.4420209769745487  0.5383470349085411  0.5219591991984486   T   T   T
  0.4420283869003483  0.5383525213504868  0.4780351033760063   T   T   T
  0.4093951972430779  0.5174380472330227  0.4999894456492627   T   T   T
  0.4974502560058589  0.4393484441744071  0.4999934913907824   T   T   T
  0.5600149115821051  0.4401248369979752  0.4999993427688973   T   T   T
  0.5585997562959384  0.5472499337508754  0.5000127014532677   T   T   T
  0.4965732708324691  0.5467524031627786  0.5000057064262220   T   T   T
 
  0.00000000E+00  0.00000000E+00  0.00000000E+00
  0.00000000E+00  0.00000000E+00  0.00000000E+00
  0.00000000E+00  0.00000000E+00  0.00000000E+00
  0.00000000E+00  0.00000000E+00  0.00000000E+00
  0.00000000E+00  0.00000000E+00  0.00000000E+00
  0.00000000E+00  0.00000000E+00  0.00000000E+00
  0.00000000E+00  0.00000000E+00  0.00000000E+00
  0.00000000E+00  0.00000000E+00  0.00000000E+00
  0.00000000E+00  0.00000000E+00  0.00000000E+00
  0.00000000E+00  0.00000000E+00  0.00000000E+00
  0.00000000E+00  0.00000000E+00  0.00000000E+00
  0.00000000E+00  0.00000000E+00  0.00000000E+00
  0.00000000E+00  0.00000000E+00  0.00000000E+00
  0.00000000E+00  0.00000000E+00  0.00000000E+00
  0.00000000E+00  0.00000000E+00  0.00000000E+00
  0.00000000E+00  0.00000000E+00  0.00000000E+00
  0.00000000E+00  0.00000000E+00  0.00000000E+00
