C H                                     
   1.00000000000000     
    40.0000000000000000    0.0000000000000000    0.0000000000000000
     0.0000000000000000   40.0000000000000000    0.0000000000000000
     0.0000000000000000    0.0000000000000000   40.0000000000000000
   C    H 
     9    12
Selective dynamics
Direct
  0.4731522845355445  0.4769396647265224  0.4999361894405081   T   T   T
  0.5050932594544790  0.4647811652032287  0.4999731227549135   T   T   T
  0.5131051725645353  0.4284774718419463  0.5000315886693936   T   T   T
  0.5318677701591455  0.4885739419372740  0.4999746860259819   T   T   T
  0.5265721290755996  0.5238860541124758  0.4998925564832524   T   T   T
  0.5555266933252203  0.5473271532409723  0.4999636668729218   T   T   T
  0.4940977050876213  0.5349923138233740  0.4998425693840167   T   T   T
  0.4669603205627329  0.5120688890651242  0.4998964894239520   T   T   T
  0.4321968882109121  0.5241491379805993  0.4999601995713704   T   T   T
  0.4906136805768490  0.4132225740347235  0.4992097518100390   T   T   T
  0.5274011719554037  0.4219854288900159  0.5224253202649619   T   T   T
  0.5289364340804970  0.4221892893750206  0.4786475726784943   T   T   T
  0.5792717392935232  0.5341821070526269  0.4983607577887240   T   T   T
  0.5536609076743262  0.5648267266564607  0.4790879701024301   T   T   T
  0.5554157272254536  0.5623285362855418  0.5228116025070345   T   T   T
  0.4184678970541290  0.5131530118099785  0.4789290123838335   T   T   T
  0.4303261576553317  0.5512287382911099  0.4990785955698509   T   T   T
  0.4193022704519836  0.5148006249154281  0.5223133063002084   T   T   T
  0.4886851977314561  0.5615506360828780  0.4997565477939757   T   T   T
  0.5573768331982073  0.4793087471280874  0.4999984911139064   T   T   T
  0.4519697601270427  0.4600277875466049  0.4999100030602238   T   T   T
 
  0.00000000E+00  0.00000000E+00  0.00000000E+00
  0.00000000E+00  0.00000000E+00  0.00000000E+00
  0.00000000E+00  0.00000000E+00  0.00000000E+00
  0.00000000E+00  0.00000000E+00  0.00000000E+00
  0.00000000E+00  0.00000000E+00  0.00000000E+00
  0.00000000E+00  0.00000000E+00  0.00000000E+00
  0.00000000E+00  0.00000000E+00  0.00000000E+00
  0.00000000E+00  0.00000000E+00  0.00000000E+00
  0.00000000E+00  0.00000000E+00  0.00000000E+00
  0.00000000E+00  0.00000000E+00  0.00000000E+00
  0.00000000E+00  0.00000000E+00  0.00000000E+00
  0.00000000E+00  0.00000000E+00  0.00000000E+00
  0.00000000E+00  0.00000000E+00  0.00000000E+00
  0.00000000E+00  0.00000000E+00  0.00000000E+00
  0.00000000E+00  0.00000000E+00  0.00000000E+00
  0.00000000E+00  0.00000000E+00  0.00000000E+00
  0.00000000E+00  0.00000000E+00  0.00000000E+00
  0.00000000E+00  0.00000000E+00  0.00000000E+00
  0.00000000E+00  0.00000000E+00  0.00000000E+00
  0.00000000E+00  0.00000000E+00  0.00000000E+00
  0.00000000E+00  0.00000000E+00  0.00000000E+00
