C N H                                   
   1.00000000000000     
    25.0000000000000000    0.0000000000000000    0.0000000000000000
     0.0000000000000000   25.0000000000000000    0.0000000000000000
     0.0000000000000000    0.0000000000000000   25.0000000000000000
   C    N    H 
    12     2     8
Selective dynamics
Direct
  0.4872784935166840  0.4914043409028199  0.3595587755374415   T   T   T
  0.4809098286664259  0.4867673320591602  0.5282143787211901   T   T   T
  0.5212611015912076  0.5144420631922491  0.5578251834223031   T   T   T
  0.5184871374467872  0.5126220111920885  0.6143054507031354   T   T   T
  0.4775002658643993  0.4845904221913965  0.6386042703129835   T   T   T
  0.4396877286007396  0.4585735850948617  0.6057920733281313   T   T   T
  0.4828972250255857  0.4882175386468173  0.4699198298996433   T   T   T
  0.5251513074191488  0.5172598033765979  0.4445904505562895   T   T   T
  0.5263687905747665  0.5181813231853050  0.3880248114701564   T   T   T
  0.4472733387461482  0.4639313828123410  0.3883430815549596   T   T   T
  0.5628507981258952  0.5430080743523075  0.5305986105191131   T   T   T
  0.5647402888037701  0.5443451200934810  0.4760205672390852   T   T   T
  0.4408692400499727  0.4593040740693574  0.5525757711256100   T   T   T
  0.4446948674651912  0.4620737489075752  0.4414902608687882   T   T   T
  0.5487178674916575  0.5334228636146520  0.6379842255467683   T   T   T
  0.4740173962818972  0.4822845235959075  0.6820120103839570   T   T   T
  0.4068860677959044  0.4360782569855007  0.6240526632488880   T   T   T
  0.5581965010590211  0.5400187332655608  0.3676030665894849   T   T   T
  0.4869224371895974  0.4911641955943720  0.3159552447983562   T   T   T
  0.4158845563787532  0.4423978345852465  0.3667388889777028   T   T   T
  0.5929783566166067  0.5637526474778637  0.5544687314983170   T   T   T
  0.5964244052898594  0.5661601248045387  0.4553206536977123   T   T   T
 
  0.00000000E+00  0.00000000E+00  0.00000000E+00
  0.00000000E+00  0.00000000E+00  0.00000000E+00
  0.00000000E+00  0.00000000E+00  0.00000000E+00
  0.00000000E+00  0.00000000E+00  0.00000000E+00
  0.00000000E+00  0.00000000E+00  0.00000000E+00
  0.00000000E+00  0.00000000E+00  0.00000000E+00
  0.00000000E+00  0.00000000E+00  0.00000000E+00
  0.00000000E+00  0.00000000E+00  0.00000000E+00
  0.00000000E+00  0.00000000E+00  0.00000000E+00
  0.00000000E+00  0.00000000E+00  0.00000000E+00
  0.00000000E+00  0.00000000E+00  0.00000000E+00
  0.00000000E+00  0.00000000E+00  0.00000000E+00
  0.00000000E+00  0.00000000E+00  0.00000000E+00
  0.00000000E+00  0.00000000E+00  0.00000000E+00
  0.00000000E+00  0.00000000E+00  0.00000000E+00
  0.00000000E+00  0.00000000E+00  0.00000000E+00
  0.00000000E+00  0.00000000E+00  0.00000000E+00
  0.00000000E+00  0.00000000E+00  0.00000000E+00
  0.00000000E+00  0.00000000E+00  0.00000000E+00
  0.00000000E+00  0.00000000E+00  0.00000000E+00
  0.00000000E+00  0.00000000E+00  0.00000000E+00
  0.00000000E+00  0.00000000E+00  0.00000000E+00
