!PBE0 def2-SV(p) Opt Freq d3 TightSCF SlowConv RIJCOSX defgrid2
 
%pal
nprocs 4
end
 
%scf
MaxIter 1500
end
 
%maxcore 3000
 

 
* xyz 0 1
C     1.2442799   -1.4034809   -0.0000059 
C     2.4099578   -0.6889288   -0.0000126 
C     2.3845580    0.7161659   -0.0000042 
C     1.1960636    1.3921230    0.0000028 
C    -0.0244835    0.6836942    0.0000021 
N    -1.1812960    1.3806475   -0.0000015 
C    -2.3056383    0.7204562    0.0000069 
C    -2.3963126   -0.6841465    0.0000216 
C    -1.2384156   -1.4134132    0.0000177 
C     0.0009881   -0.7391664    0.0000053 
H    -1.2536779   -2.4947144    0.0000275 
H    -3.3642104   -1.1608906    0.0000350 
H    -3.2057305    1.3235387    0.0000021 
H     1.1554005    2.4701809    0.0000105 
H     3.3176951    1.2597244   -0.0000033 
H     3.3610460   -1.2002772   -0.0000254 
H     1.2556451   -2.4842559   -0.0000126
*
