C O H                                   
   1.00000000000000     
    40.0000000000000000    0.0000000000000000    0.0000000000000000
     0.0000000000000000   40.0000000000000000    0.0000000000000000
     0.0000000000000000    0.0000000000000000   40.0000000000000000
   C    O    H 
    10     1    12
Selective dynamics
Direct
  0.4857702057959536  0.5200648226435551  0.4999953858967965   T   T   T
  0.4533319415616612  0.5066835413094285  0.4999989964080453   T   T   T
  0.4487268218162637  0.4719434037724061  0.5000022157166146   T   T   T
  0.4770751745076320  0.4512512688552791  0.5000007028512969   T   T   T
  0.5092694689882620  0.4643908314678064  0.4999982669475759   T   T   T
  0.5141131109663656  0.4994059536785695  0.4999960982596093   T   T   T
  0.5471886313713832  0.5153554262961272  0.4999953359277622   T   T   T
  0.5771533256557340  0.5000294212090206  0.5000031553001565   T   T   T
  0.6100023603204043  0.5178436744316484  0.4999999403228987   T   T   T
  0.3941842831148800  0.5173030782348439  0.5000040840224377   T   T   T
  0.4278922500818301  0.5296979636577719  0.4999996565374344   T   T   T
  0.6250289465738842  0.5108450634679018  0.4779894218485701   T   T   T
  0.6250245645681753  0.5108589465115200  0.5220176887986803   T   T   T
  0.6068145658983544  0.5451188929729024  0.4999906313885948   T   T   T
  0.5783477152229742  0.4726760698462176  0.5000112436534785   T   T   T
  0.5467722791768785  0.5427562360976766  0.4999858718592207   T   T   T
  0.5306575044964960  0.4474858701300726  0.4999978352317275   T   T   T
  0.4736175935632553  0.4241865792643968  0.5000021361067747   T   T   T
  0.4238942017602708  0.4608434490418468  0.5000024171208785   T   T   T
  0.3781507833837175  0.5394810824510641  0.5000036841959467   T   T   T
  0.3891582340215618  0.5022873683178174  0.5225172947379323   T   T   T
  0.3891539724329506  0.5022849884094116  0.4774929977348604   T   T   T
  0.4886720647211178  0.5472060679327090  0.4999949391327084   T   T   T
 
  0.00000000E+00  0.00000000E+00  0.00000000E+00
  0.00000000E+00  0.00000000E+00  0.00000000E+00
  0.00000000E+00  0.00000000E+00  0.00000000E+00
  0.00000000E+00  0.00000000E+00  0.00000000E+00
  0.00000000E+00  0.00000000E+00  0.00000000E+00
  0.00000000E+00  0.00000000E+00  0.00000000E+00
  0.00000000E+00  0.00000000E+00  0.00000000E+00
  0.00000000E+00  0.00000000E+00  0.00000000E+00
  0.00000000E+00  0.00000000E+00  0.00000000E+00
  0.00000000E+00  0.00000000E+00  0.00000000E+00
  0.00000000E+00  0.00000000E+00  0.00000000E+00
  0.00000000E+00  0.00000000E+00  0.00000000E+00
  0.00000000E+00  0.00000000E+00  0.00000000E+00
  0.00000000E+00  0.00000000E+00  0.00000000E+00
  0.00000000E+00  0.00000000E+00  0.00000000E+00
  0.00000000E+00  0.00000000E+00  0.00000000E+00
  0.00000000E+00  0.00000000E+00  0.00000000E+00
  0.00000000E+00  0.00000000E+00  0.00000000E+00
  0.00000000E+00  0.00000000E+00  0.00000000E+00
  0.00000000E+00  0.00000000E+00  0.00000000E+00
  0.00000000E+00  0.00000000E+00  0.00000000E+00
  0.00000000E+00  0.00000000E+00  0.00000000E+00
  0.00000000E+00  0.00000000E+00  0.00000000E+00
