!PBE0 def2-SV(p) Opt Freq d3 TightSCF SlowConv RIJCOSX defgrid2

%pal
nprocs 15
end

%scf
MaxIter 1500
end

%maxcore 3500

 

* xyz 0 1
C        0.004558812      0.000000000     -3.489690367
C       -0.056108968     -0.041695056      0.734815434
C        1.100442554     -0.178592914      1.507595227
C        0.996422886     -0.206810306      2.892232778
C       -0.260589785     -0.097742889      3.477472972
C       -1.365695149      0.035745257      2.642920802
N       -1.272951864      0.063773284      1.305431273
H        2.085183304     -0.263891796      1.043943022
H        1.893469747     -0.313467420      3.508699830
H       -0.382723826     -0.115841507      4.563891648
H       -2.374762822      0.124846981      3.057190647
C       -0.003918387     -0.005826117     -0.738868984
C        1.001184344      0.684949404     -1.421612535
C        1.004814116      0.687444036     -2.810431477
C       -0.962051684     -0.664321019     -2.741428371
N       -0.971945302     -0.671120592     -1.400488027
H        1.784447261      1.223261391     -0.884320244
H        1.785498525      1.223983885     -3.357018433
H       -0.026054626     -0.021039663     -4.582471223
H       -1.768598059     -1.218634998     -3.231321350
*
