C F O H                                 
   1.00000000000000     
    40.0000000000000000    0.0000000000000000    0.0000000000000000
     0.0000000000000000   40.0000000000000000    0.0000000000000000
     0.0000000000000000    0.0000000000000000   40.0000000000000000
   C    F    O    H 
     8     1     1     7
Selective dynamics
Direct
  0.5101201769292066  0.5234547093951644  0.5000009832320660   T   T   T
  0.5448976981891045  0.5240233427862572  0.5000059551214190   T   T   T
  0.5623559068751599  0.4937085283051608  0.5000081837544099   T   T   T
  0.5458785377451534  0.4628571272173239  0.5000032747927192   T   T   T
  0.5111610601130024  0.4623572708958777  0.4999988903569363   T   T   T
  0.4916227342418367  0.4926012300753327  0.4999985814328534   T   T   T
  0.4557261622611985  0.4910354104767358  0.4999956944751660   T   T   T
  0.4359284337850395  0.5235096670218781  0.4999948719671313   T   T   T
  0.5972313251016370  0.4943052643663651  0.5000073977492442   T   T   T
  0.4395858129908278  0.4630006071990806  0.4999931193776644   T   T   T
  0.4413513342059061  0.5391717275107973  0.5220854551179371   T   T   T
  0.4413587262493411  0.5391769320757329  0.4779096307409234   T   T   T
  0.4091399176008750  0.5176073648855749  0.4999897407973906   T   T   T
  0.4978592667540532  0.4385534493934922  0.4999953493363763   T   T   T
  0.5603183095329837  0.4396916203067485  0.5000001421417488   T   T   T
  0.5585696320909987  0.5476363176312510  0.5000106945712299   T   T   T
  0.4968949653336756  0.5473094304572490  0.5000030350347956   T   T   T
 
  0.00000000E+00  0.00000000E+00  0.00000000E+00
  0.00000000E+00  0.00000000E+00  0.00000000E+00
  0.00000000E+00  0.00000000E+00  0.00000000E+00
  0.00000000E+00  0.00000000E+00  0.00000000E+00
  0.00000000E+00  0.00000000E+00  0.00000000E+00
  0.00000000E+00  0.00000000E+00  0.00000000E+00
  0.00000000E+00  0.00000000E+00  0.00000000E+00
  0.00000000E+00  0.00000000E+00  0.00000000E+00
  0.00000000E+00  0.00000000E+00  0.00000000E+00
  0.00000000E+00  0.00000000E+00  0.00000000E+00
  0.00000000E+00  0.00000000E+00  0.00000000E+00
  0.00000000E+00  0.00000000E+00  0.00000000E+00
  0.00000000E+00  0.00000000E+00  0.00000000E+00
  0.00000000E+00  0.00000000E+00  0.00000000E+00
  0.00000000E+00  0.00000000E+00  0.00000000E+00
  0.00000000E+00  0.00000000E+00  0.00000000E+00
  0.00000000E+00  0.00000000E+00  0.00000000E+00
