!PBE0 opt def2-SV(p) d3 TightSCF SlowConv RIJCOSX defgrid2

%pal
nprocs 8
end

%scf
MaxIter 1500
end

%maxcore 3500

!CPCM
%cpcm smd true
SMDsolvent "MeCN"
surfacetype gepol_ses
rsolv 2.19
end 

* xyz 0 1
C          -1.20884186796781     -0.02278058914418      0.00003742233159
C          -1.20709913160620      1.38045218788773      0.00016703364523
C           0.00003556987027      2.07238258705511      0.00002257197541
C           1.20714414585697      1.38040506278913     -0.00023783478174
C           1.20883517896309     -0.02282737272555     -0.00031075934043
C          -0.00001674938231     -0.72722788932514     -0.00021243594479
H          -0.00003875372447     -1.81890955720448     -0.00030359455707
C           2.45039282749013     -0.73822162648839     -0.00031862016213
N           3.45665781045797     -1.31294485312421      0.00119491286029
H           2.15765649045058      1.91893621365633     -0.00034701835738
H           0.00005970442079      3.16546819660540      0.00011390445176
H          -2.15759482922730      1.91901494079977      0.00036663554396
C          -2.45042247590246     -0.73813543850926      0.00010406543100
N          -3.45670371969924     -1.31283236227226     -0.00021618309569
*
