!PBE0 def2-SV(p) Opt Freq d3 TightSCF SlowConv RIJCOSX defgrid2
 
%pal
nprocs 8
end
 
%scf
MaxIter 1500
end
 
%maxcore 3000
 
* xyz 1 2
6        0.344812600     -1.208415600     -0.131816400
7        1.105470000      0.000014400     -0.033919600
1        2.131129800      0.000038600     -0.060807800
6        0.350975200      1.208584800      0.102643000
6       -1.123761800      0.772835400     -0.161957600
6       -1.113438000     -0.772958200      0.212247800
1       -1.323175400     -0.952929200      1.362613200
1       -1.921184000     -1.394748800     -0.382697400
1       -1.898024400      1.394138800      0.476374200
1       -1.395750400      0.952829600     -1.299148600
1        0.781098600      2.016466200     -0.592317400
1        0.554418800      1.611454400      1.169594800
1        0.490416800     -1.608933000     -1.209185200
1        0.811605400     -2.017793600      0.537173600
*
