C N S H                                 
   1.00000000000000     
    40.0000000000000000    0.0000000000000000    0.0000000000000000
     0.0000000000000000   40.0000000000000000    0.0000000000000000
     0.0000000000000000    0.0000000000000000   40.0000000000000000
   C    N    S    H 
    16     3     1    18
Selective dynamics
Direct
  0.4659141594555002  0.5040686995437186  0.4999047369226070   T   T   T
  0.4343267127304349  0.5185278814122397  0.4998249444010278   T   T   T
  0.4051864460402599  0.4987236240709859  0.4997049717585342   T   T   T
  0.4093326217715704  0.4635458597509706  0.4996980105968748   T   T   T
  0.4407405833140889  0.4495751740390545  0.4998089231614243   T   T   T
  0.4704686499195893  0.4687750405498387  0.4999060959819934   T   T   T
  0.5295341348076217  0.4687773744690409  0.5000925386161799   T   T   T
  0.5592626409299181  0.4495794647024458  0.5001767404757324   T   T   T
  0.5906696115265853  0.4635495410121433  0.5002961147530256   T   T   T
  0.5948112083987461  0.4987292753423962  0.5003113192242824   T   T   T
  0.5656679608457476  0.5185309400983615  0.5002008169762349   T   T   T
  0.5340846764897412  0.5040702778854288  0.5001094025569770   T   T   T
  0.6295436590261628  0.5489669137784872  0.5004464699708774   T   T   T
  0.6555805383942178  0.4920402999242414  0.5005160438405301   T   T   T
  0.3444204322928422  0.4920287153127129  0.4994856931099144   T   T   T
  0.3704538201402083  0.5489594464605458  0.4995487877325641   T   T   T
  0.5000023757033192  0.4520777497116754  0.4999928558486048   T   T   T
  0.6259860560833449  0.5129448936032163  0.5004527355323652   T   T   T
  0.3740108796449161  0.5129377553840853  0.4995803620126628   T   T   T
  0.4999986343374824  0.5312921176838851  0.5000132059319433   T   T   T
  0.4436723451050559  0.4226280664605783  0.4998148073342607   T   T   T
  0.5675732767704894  0.5455318763658863  0.5002051518631621   T   T   T
  0.6182003039589812  0.5602339080921297  0.4781919899189133   T   T   T
  0.6179541306433527  0.5602573464054479  0.5225618837118596   T   T   T
  0.6559786109478521  0.5552817939992639  0.5005937566886802   T   T   T
  0.6776233193586035  0.5079398694954739  0.5006586035497103   T   T   T
  0.6565683359360257  0.4759419424789061  0.5226603288699684   T   T   T
  0.6567565034053855  0.4760583216835292  0.4782989547703689   T   T   T
  0.6122847729854565  0.4473124473750900  0.5003679586393636   T   T   T
  0.5563339876833457  0.4226339238680766  0.5001517561285947   T   T   T
  0.3877202609013916  0.4473045087488308  0.4996107884671744   T   T   T
  0.3432638319842617  0.4759954686534236  0.5216673775427936   T   T   T
  0.3434128486014091  0.4759809296400654  0.4773054827499832   T   T   T
  0.3223767944676921  0.5079270625123229  0.4994023100277861   T   T   T
  0.3818077863640031  0.5602464228232296  0.5217878117196888   T   T   T
  0.3820340722491741  0.5602263307689738  0.4774163799657402   T   T   T
  0.3440187205876335  0.5552712494248119  0.4994089446191096   T   T   T
  0.4324242961976172  0.5455274864684648  0.4998279440284726   T   T   T
 
  0.00000000E+00  0.00000000E+00  0.00000000E+00
  0.00000000E+00  0.00000000E+00  0.00000000E+00
  0.00000000E+00  0.00000000E+00  0.00000000E+00
  0.00000000E+00  0.00000000E+00  0.00000000E+00
  0.00000000E+00  0.00000000E+00  0.00000000E+00
  0.00000000E+00  0.00000000E+00  0.00000000E+00
  0.00000000E+00  0.00000000E+00  0.00000000E+00
  0.00000000E+00  0.00000000E+00  0.00000000E+00
  0.00000000E+00  0.00000000E+00  0.00000000E+00
  0.00000000E+00  0.00000000E+00  0.00000000E+00
  0.00000000E+00  0.00000000E+00  0.00000000E+00
  0.00000000E+00  0.00000000E+00  0.00000000E+00
  0.00000000E+00  0.00000000E+00  0.00000000E+00
  0.00000000E+00  0.00000000E+00  0.00000000E+00
  0.00000000E+00  0.00000000E+00  0.00000000E+00
  0.00000000E+00  0.00000000E+00  0.00000000E+00
  0.00000000E+00  0.00000000E+00  0.00000000E+00
  0.00000000E+00  0.00000000E+00  0.00000000E+00
  0.00000000E+00  0.00000000E+00  0.00000000E+00
  0.00000000E+00  0.00000000E+00  0.00000000E+00
  0.00000000E+00  0.00000000E+00  0.00000000E+00
  0.00000000E+00  0.00000000E+00  0.00000000E+00
  0.00000000E+00  0.00000000E+00  0.00000000E+00
  0.00000000E+00  0.00000000E+00  0.00000000E+00
  0.00000000E+00  0.00000000E+00  0.00000000E+00
  0.00000000E+00  0.00000000E+00  0.00000000E+00
  0.00000000E+00  0.00000000E+00  0.00000000E+00
  0.00000000E+00  0.00000000E+00  0.00000000E+00
  0.00000000E+00  0.00000000E+00  0.00000000E+00
  0.00000000E+00  0.00000000E+00  0.00000000E+00
  0.00000000E+00  0.00000000E+00  0.00000000E+00
  0.00000000E+00  0.00000000E+00  0.00000000E+00
  0.00000000E+00  0.00000000E+00  0.00000000E+00
  0.00000000E+00  0.00000000E+00  0.00000000E+00
  0.00000000E+00  0.00000000E+00  0.00000000E+00
  0.00000000E+00  0.00000000E+00  0.00000000E+00
  0.00000000E+00  0.00000000E+00  0.00000000E+00
  0.00000000E+00  0.00000000E+00  0.00000000E+00
