C O H                                   
   1.00000000000000     
    40.0000000000000000    0.0000000000000000    0.0000000000000000
     0.0000000000000000   40.0000000000000000    0.0000000000000000
     0.0000000000000000    0.0000000000000000   40.0000000000000000
   C    O    H 
     4     1     4
Selective dynamics
Direct
  0.4857334517361735  0.4723792139345520  0.5000000000000000   T   T   T
  0.5184782787908446  0.4820351768455922  0.5000000000000000   T   T   T
  0.5184772787908400  0.5179658231544053  0.5000000000000000   T   T   T
  0.4857314517361715  0.5276197860654435  0.5000000000000000   T   T   T
  0.4652399469040773  0.4999990000000025  0.5000000000000000   T   T   T
  0.4730997752414865  0.5516025023793460  0.5000000000000000   T   T   T
  0.5400670207794747  0.5344146972484225  0.4999990000000025   T   T   T
  0.5400690207794696  0.4655883027515770  0.5000000000000000   T   T   T
  0.4731027752414860  0.4483954976206519  0.5000000000000000   T   T   T
 
  0.00000000E+00  0.00000000E+00  0.00000000E+00
  0.00000000E+00  0.00000000E+00  0.00000000E+00
  0.00000000E+00  0.00000000E+00  0.00000000E+00
  0.00000000E+00  0.00000000E+00  0.00000000E+00
  0.00000000E+00  0.00000000E+00  0.00000000E+00
  0.00000000E+00  0.00000000E+00  0.00000000E+00
  0.00000000E+00  0.00000000E+00  0.00000000E+00
  0.00000000E+00  0.00000000E+00  0.00000000E+00
  0.00000000E+00  0.00000000E+00  0.00000000E+00
