C F O H                                 
   1.00000000000000     
    40.0000000000000000    0.0000000000000000    0.0000000000000000
     0.0000000000000000   40.0000000000000000    0.0000000000000000
     0.0000000000000000    0.0000000000000000   40.0000000000000000
   C    F    O    H 
     8     1     1     7
Selective dynamics
Direct
  0.5101201769292061  0.5234547093951676  0.5000009832320629   T   T   T
  0.5448976981891036  0.5240233427862577  0.5000059551214164   T   T   T
  0.5623559068751618  0.4937085283051630  0.5000081837544101   T   T   T
  0.5458785377451534  0.4628571272173261  0.5000032747927179   T   T   T
  0.5111610601130039  0.4623572708958790  0.4999988903569346   T   T   T
  0.4916227342418367  0.4926012300753300  0.4999985814328554   T   T   T
  0.4557261622612003  0.4910354104767336  0.4999956944751673   T   T   T
  0.4359284337850369  0.5235096670218766  0.4999948719671323   T   T   T
  0.5972313251016388  0.4943052643663677  0.5000073977492434   T   T   T
  0.4395858129908277  0.4630006071990778  0.4999931193776632   T   T   T
  0.4413513342059048  0.5391717275107979  0.5220854551179386   T   T   T
  0.4413587262493408  0.5391769320757334  0.4779096307409247   T   T   T
  0.4091399176008750  0.5176073648855777  0.4999897407973890   T   T   T
  0.4978592667540553  0.4385534493934955  0.4999953493363734   T   T   T
  0.5603183095329811  0.4396916203067462  0.5000001421417508   T   T   T
  0.5585696320910003  0.5476363176312518  0.5000106945712304   T   T   T
  0.4968949653336736  0.5473094304572470  0.5000030350347942   T   T   T
 
  0.00000000E+00  0.00000000E+00  0.00000000E+00
  0.00000000E+00  0.00000000E+00  0.00000000E+00
  0.00000000E+00  0.00000000E+00  0.00000000E+00
  0.00000000E+00  0.00000000E+00  0.00000000E+00
  0.00000000E+00  0.00000000E+00  0.00000000E+00
  0.00000000E+00  0.00000000E+00  0.00000000E+00
  0.00000000E+00  0.00000000E+00  0.00000000E+00
  0.00000000E+00  0.00000000E+00  0.00000000E+00
  0.00000000E+00  0.00000000E+00  0.00000000E+00
  0.00000000E+00  0.00000000E+00  0.00000000E+00
  0.00000000E+00  0.00000000E+00  0.00000000E+00
  0.00000000E+00  0.00000000E+00  0.00000000E+00
  0.00000000E+00  0.00000000E+00  0.00000000E+00
  0.00000000E+00  0.00000000E+00  0.00000000E+00
  0.00000000E+00  0.00000000E+00  0.00000000E+00
  0.00000000E+00  0.00000000E+00  0.00000000E+00
  0.00000000E+00  0.00000000E+00  0.00000000E+00
