C O H                                   
   1.00000000000000     
    25.0000000000000000    0.0000000000000000    0.0000000000000000
     0.0000000000000000   25.0000000000000000    0.0000000000000000
     0.0000000000000000    0.0000000000000000   25.0000000000000000
   C    O    H 
    12     2    10
Selective dynamics
Direct
  0.4976165868373057  0.4805340477357029  0.4449969468671357   T   T   T
  0.4988063154431001  0.5398520811127168  0.4495647731233643   T   T   T
  0.5011681170304977  0.5642782322226972  0.4984781287798334   T   T   T
  0.5023384653623917  0.5322686831049300  0.5486720929023302   T   T   T
  0.5011164306410564  0.4729382505638537  0.5449970396920174   T   T   T
  0.4988588501937368  0.4478194996220793  0.4946144011772566   T   T   T
  0.4977606907639677  0.3918904374528844  0.4914421051583833   T   T   T
  0.4988710474043088  0.3611200771336145  0.5380388080587424   T   T   T
  0.5011125581372660  0.3860929297108862  0.5881221531150660   T   T   T
  0.5022199175767404  0.4418162885508453  0.5915947395651727   T   T   T
  0.5025163957400931  0.6238827905644614  0.5038697765201322   T   T   T
  0.4975063083994838  0.5712997876213807  0.3986525764712512   T   T   T
  0.5042717756810143  0.5548220381096297  0.5929512256267601   T   T   T
  0.4956457992079860  0.4586733372918204  0.4003683741911022   T   T   T
  0.5039738162377805  0.4616854839485840  0.6303680993767783   T   T   T
  0.5020137066883505  0.3620520670813135  0.6245104690582247   T   T   T
  0.4980372751571625  0.3175876249233651  0.5353367957773154   T   T   T
  0.4960455766171558  0.3728737897782183  0.4522403630631580   T   T   T
  0.4665475748693533  0.6420540242939931  0.4860623264716659   T   T   T
  0.5048463702813702  0.6357577963663731  0.5459664973223876   T   T   T
  0.5370496931820624  0.6408352766193722  0.4824193749937103   T   T   T
  0.5334899519219031  0.5964415245887642  0.3948732609551741   T   T   T
  0.4951961223092410  0.5447695522044282  0.3638901707399081   T   T   T
  0.4629896543166750  0.5986553793980762  0.3979685009931038   T   T   T
 
  0.00000000E+00  0.00000000E+00  0.00000000E+00
  0.00000000E+00  0.00000000E+00  0.00000000E+00
  0.00000000E+00  0.00000000E+00  0.00000000E+00
  0.00000000E+00  0.00000000E+00  0.00000000E+00
  0.00000000E+00  0.00000000E+00  0.00000000E+00
  0.00000000E+00  0.00000000E+00  0.00000000E+00
  0.00000000E+00  0.00000000E+00  0.00000000E+00
  0.00000000E+00  0.00000000E+00  0.00000000E+00
  0.00000000E+00  0.00000000E+00  0.00000000E+00
  0.00000000E+00  0.00000000E+00  0.00000000E+00
  0.00000000E+00  0.00000000E+00  0.00000000E+00
  0.00000000E+00  0.00000000E+00  0.00000000E+00
  0.00000000E+00  0.00000000E+00  0.00000000E+00
  0.00000000E+00  0.00000000E+00  0.00000000E+00
  0.00000000E+00  0.00000000E+00  0.00000000E+00
  0.00000000E+00  0.00000000E+00  0.00000000E+00
  0.00000000E+00  0.00000000E+00  0.00000000E+00
  0.00000000E+00  0.00000000E+00  0.00000000E+00
  0.00000000E+00  0.00000000E+00  0.00000000E+00
  0.00000000E+00  0.00000000E+00  0.00000000E+00
  0.00000000E+00  0.00000000E+00  0.00000000E+00
  0.00000000E+00  0.00000000E+00  0.00000000E+00
  0.00000000E+00  0.00000000E+00  0.00000000E+00
  0.00000000E+00  0.00000000E+00  0.00000000E+00
