C N S H                                 
   1.00000000000000     
    40.0000000000000000    0.0000000000000000    0.0000000000000000
     0.0000000000000000   40.0000000000000000    0.0000000000000000
     0.0000000000000000    0.0000000000000000   40.0000000000000000
   C    N    S    H 
    16     3     1    18
Selective dynamics
Direct
  0.4657218681548922  0.5040080477846690  0.4998842142632967   T   T   T
  0.4340636844363226  0.5185794433280274  0.4997947426380289   T   T   T
  0.4046697941277055  0.4987466883424159  0.4996615240402648   T   T   T
  0.4088451236010958  0.4633516791846312  0.4996734491385577   T   T   T
  0.4403948231746266  0.4492847168270728  0.4997847321033249   T   T   T
  0.4703306568358573  0.4685099198723125  0.4998872291539719   T   T   T
  0.5296733033107631  0.4685137695207239  0.5001095592485922   T   T   T
  0.5596086204994656  0.4492907137646018  0.5001953242470528   T   T   T
  0.5911583557263937  0.4633603335457822  0.5003185545219755   T   T   T
  0.5953313049342557  0.4987550502522610  0.5003527359517733   T   T   T
  0.5659365121213433  0.5185858829177969  0.5002347781155764   T   T   T
  0.5342786262405192  0.5040105806861874  0.5001346996076559   T   T   T
  0.6300254875210695  0.5492249113190304  0.5004712002092266   T   T   T
  0.6562339635969371  0.4921047498263342  0.5005259077559381   T   T   T
  0.3437660470614998  0.4920949235237219  0.4994753906977419   T   T   T
  0.3699717079069173  0.5492156860281306  0.4995230678890940   T   T   T
  0.5000027482458479  0.4517774057174443  0.4999940073739165   T   T   T
  0.6265004789872988  0.5130543321291361  0.5004706620925552   T   T   T
  0.3734981599935138  0.5130442870390686  0.4995614825472249   T   T   T
  0.4999982317808301  0.5313972164225818  0.5000224905778400   T   T   T
  0.4431234255299402  0.4221374730020692  0.4997989281798398   T   T   T
  0.5677840072005383  0.5457665474769471  0.5002295336247315   T   T   T
  0.6185278666124588  0.5605165397716950  0.4780944965610464   T   T   T
  0.6182825384955887  0.5605223769168102  0.5227212376708725   T   T   T
  0.6565906812901452  0.5557211259671875  0.5006221340855648   T   T   T
  0.6784549920120418  0.5080404188885199  0.5006646634409193   T   T   T
  0.6571682564609804  0.4758909231116759  0.5227909901692713   T   T   T
  0.6573546064321747  0.4760235502370812  0.4781708925203003   T   T   T
  0.6128802627284677  0.4469606035635517  0.5003688050905875   T   T   T
  0.5568800707662386  0.4221420143282993  0.5001632527872875   T   T   T
  0.3871221317319872  0.4469538801909002  0.4996071505778889   T   T   T
  0.3426659501588175  0.4759603681285431  0.5217937026764018   T   T   T
  0.3428102207918952  0.4759335617527767  0.4771720487372306   T   T   T
  0.3215451006625952  0.5080291226618449  0.4993986958906251   T   T   T
  0.3814769426612221  0.5605327682260069  0.5218837765500345   T   T   T
  0.3817031628155875  0.5604912429071838  0.4772553861602391   T   T   T
  0.3434062678937844  0.5557084305712181  0.4993770457749943   T   T   T
  0.4322140174983888  0.5457587142657518  0.4998145073285502   T   T   T
 
  0.00000000E+00  0.00000000E+00  0.00000000E+00
  0.00000000E+00  0.00000000E+00  0.00000000E+00
  0.00000000E+00  0.00000000E+00  0.00000000E+00
  0.00000000E+00  0.00000000E+00  0.00000000E+00
  0.00000000E+00  0.00000000E+00  0.00000000E+00
  0.00000000E+00  0.00000000E+00  0.00000000E+00
  0.00000000E+00  0.00000000E+00  0.00000000E+00
  0.00000000E+00  0.00000000E+00  0.00000000E+00
  0.00000000E+00  0.00000000E+00  0.00000000E+00
  0.00000000E+00  0.00000000E+00  0.00000000E+00
  0.00000000E+00  0.00000000E+00  0.00000000E+00
  0.00000000E+00  0.00000000E+00  0.00000000E+00
  0.00000000E+00  0.00000000E+00  0.00000000E+00
  0.00000000E+00  0.00000000E+00  0.00000000E+00
  0.00000000E+00  0.00000000E+00  0.00000000E+00
  0.00000000E+00  0.00000000E+00  0.00000000E+00
  0.00000000E+00  0.00000000E+00  0.00000000E+00
  0.00000000E+00  0.00000000E+00  0.00000000E+00
  0.00000000E+00  0.00000000E+00  0.00000000E+00
  0.00000000E+00  0.00000000E+00  0.00000000E+00
  0.00000000E+00  0.00000000E+00  0.00000000E+00
  0.00000000E+00  0.00000000E+00  0.00000000E+00
  0.00000000E+00  0.00000000E+00  0.00000000E+00
  0.00000000E+00  0.00000000E+00  0.00000000E+00
  0.00000000E+00  0.00000000E+00  0.00000000E+00
  0.00000000E+00  0.00000000E+00  0.00000000E+00
  0.00000000E+00  0.00000000E+00  0.00000000E+00
  0.00000000E+00  0.00000000E+00  0.00000000E+00
  0.00000000E+00  0.00000000E+00  0.00000000E+00
  0.00000000E+00  0.00000000E+00  0.00000000E+00
  0.00000000E+00  0.00000000E+00  0.00000000E+00
  0.00000000E+00  0.00000000E+00  0.00000000E+00
  0.00000000E+00  0.00000000E+00  0.00000000E+00
  0.00000000E+00  0.00000000E+00  0.00000000E+00
  0.00000000E+00  0.00000000E+00  0.00000000E+00
  0.00000000E+00  0.00000000E+00  0.00000000E+00
  0.00000000E+00  0.00000000E+00  0.00000000E+00
  0.00000000E+00  0.00000000E+00  0.00000000E+00
