C Cl O H                                
   1.00000000000000     
    40.0000000000000000    0.0000000000000000    0.0000000000000000
     0.0000000000000000   40.0000000000000000    0.0000000000000000
     0.0000000000000000    0.0000000000000000   40.0000000000000000
   C    Cl   O    H 
     7     1     1     5
Selective dynamics
Direct
  0.4967269712839592  0.4687864842512564  0.4999816105180930   T   T   T
  0.4630768226654632  0.4764112929636192  0.4999791402622325   T   T   T
  0.4519036185167297  0.5097005281236404  0.4999959281184246   T   T   T
  0.4759230723599960  0.5353536506417285  0.5000129660115125   T   T   T
  0.5097451577454879  0.5284135661422360  0.5000184342567426   T   T   T
  0.5216080650526310  0.4947101728019548  0.5000017968506868   T   T   T
  0.5553703671493563  0.4845960831578926  0.5000026257079389   T   T   T
  0.5865318804389932  0.5209490018561337  0.5000171588364813   T   T   T
  0.5683738017640790  0.4565221878546776  0.4999969279078358   T   T   T
  0.5276528913070188  0.5486986457021268  0.5000314724882212   T   T   T
  0.4678327878261518  0.5612709488039936  0.5000247544003714   T   T   T
  0.4254157802516263  0.5154732784307797  0.4999946696236320   T   T   T
  0.4449560234176693  0.4561668564166235  0.4999692936173054   T   T   T
  0.5048817602208342  0.4429483028533346  0.4999732214005149   T   T   T
 
  0.00000000E+00  0.00000000E+00  0.00000000E+00
  0.00000000E+00  0.00000000E+00  0.00000000E+00
  0.00000000E+00  0.00000000E+00  0.00000000E+00
  0.00000000E+00  0.00000000E+00  0.00000000E+00
  0.00000000E+00  0.00000000E+00  0.00000000E+00
  0.00000000E+00  0.00000000E+00  0.00000000E+00
  0.00000000E+00  0.00000000E+00  0.00000000E+00
  0.00000000E+00  0.00000000E+00  0.00000000E+00
  0.00000000E+00  0.00000000E+00  0.00000000E+00
  0.00000000E+00  0.00000000E+00  0.00000000E+00
  0.00000000E+00  0.00000000E+00  0.00000000E+00
  0.00000000E+00  0.00000000E+00  0.00000000E+00
  0.00000000E+00  0.00000000E+00  0.00000000E+00
  0.00000000E+00  0.00000000E+00  0.00000000E+00
