C H                                     
   1.00000000000000     
    40.0000000000000000    0.0000000000000000    0.0000000000000000
     0.0000000000000000   40.0000000000000000    0.0000000000000000
     0.0000000000000000    0.0000000000000000   40.0000000000000000
   C    H 
     8    10
Selective dynamics
Direct
  0.4453056230677083  0.4820278969277476  0.5000009157873361   T   T   T
  0.4750882296055541  0.4644815659198350  0.5000005364039026   T   T   T
  0.5057932152897935  0.4815595807331647  0.4999997873856614   T   T   T
  0.5376978732623062  0.4629198633557939  0.4999981708036165   T   T   T
  0.5057932686919181  0.5184401831937637  0.5000004051416319   T   T   T
  0.5376976910862888  0.5370800255866459  0.5000001930902277   T   T   T
  0.4750884136337524  0.5355185713531150  0.5000012806698655   T   T   T
  0.4453053312834145  0.5179720944774913  0.5000013754990957   T   T   T
  0.5530010496332355  0.4698139062355862  0.5219082093211836   T   T   T
  0.5336009555393020  0.4358661107855423  0.5000003043109923   T   T   T
  0.5529973522411044  0.4698110011161654  0.4780846443904376   T   T   T
  0.5530001589130694  0.5301858235602996  0.4780897598904367   T   T   T
  0.5336009392639244  0.5641337650179931  0.4999983395436025   T   T   T
  0.5529980825197101  0.5301889169403072  0.5219131468235418   T   T   T
  0.4214937311447142  0.5311974846103664  0.5000013071251763   T   T   T
  0.4750231537594149  0.5627536299527677  0.5000012208110600   T   T   T
  0.4750232342341926  0.4372463003834138  0.5000001430382757   T   T   T
  0.4214936968305703  0.4688022798500042  0.5000012599639397   T   T   T
 
  0.00000000E+00  0.00000000E+00  0.00000000E+00
  0.00000000E+00  0.00000000E+00  0.00000000E+00
  0.00000000E+00  0.00000000E+00  0.00000000E+00
  0.00000000E+00  0.00000000E+00  0.00000000E+00
  0.00000000E+00  0.00000000E+00  0.00000000E+00
  0.00000000E+00  0.00000000E+00  0.00000000E+00
  0.00000000E+00  0.00000000E+00  0.00000000E+00
  0.00000000E+00  0.00000000E+00  0.00000000E+00
  0.00000000E+00  0.00000000E+00  0.00000000E+00
  0.00000000E+00  0.00000000E+00  0.00000000E+00
  0.00000000E+00  0.00000000E+00  0.00000000E+00
  0.00000000E+00  0.00000000E+00  0.00000000E+00
  0.00000000E+00  0.00000000E+00  0.00000000E+00
  0.00000000E+00  0.00000000E+00  0.00000000E+00
  0.00000000E+00  0.00000000E+00  0.00000000E+00
  0.00000000E+00  0.00000000E+00  0.00000000E+00
  0.00000000E+00  0.00000000E+00  0.00000000E+00
  0.00000000E+00  0.00000000E+00  0.00000000E+00
