C O H                                   
   1.00000000000000     
    40.0000000000000000    0.0000000000000000    0.0000000000000000
     0.0000000000000000   40.0000000000000000    0.0000000000000000
     0.0000000000000000    0.0000000000000000   40.0000000000000000
   C    O    H 
     9     1     8
Selective dynamics
Direct
  0.4884971514979866  0.4768495428929574  0.4999959038664886   T   T   T
  0.4739446818187247  0.5092581295433758  0.4999975455406696   T   T   T
  0.4941741284067571  0.5386086362927810  0.4999956322576750   T   T   T
  0.5280839293441135  0.5356573961606104  0.4999939410204854   T   T   T
  0.5430672362957947  0.5032927944981345  0.4999939691426647   T   T   T
  0.5224910635412042  0.4741089359268693  0.4999963784143766   T   T   T
  0.5776436695765811  0.5000818197533312  0.5000011959965720   T   T   T
  0.6079429999273260  0.4973238959428262  0.5000156765836427   T   T   T
  0.4179929070368955  0.4870933276863030  0.5000043771501289   T   T   T
  0.4416050737890871  0.5147665356506919  0.4999988625348511   T   T   T
  0.5343192100615627  0.4497926659940378  0.4999853938207744   T   T   T
  0.6345147661300544  0.4948647796016150  0.5000253878115193   T   T   T
  0.5439469824408499  0.5575615783123133  0.4999937783304184   T   T   T
  0.4819071324957206  0.5627258811954516  0.4999966126668652   T   T   T
  0.3936385817580187  0.4989474212564590  0.5000113607361080   T   T   T
  0.4215928557815766  0.4721775640659557  0.4775307531291469   T   T   T
  0.4216052049545246  0.4721749810446077  0.5224745229199192   T   T   T
  0.4730314251432314  0.4547141141816587  0.4999887080776795   T   T   T
 
  0.00000000E+00  0.00000000E+00  0.00000000E+00
  0.00000000E+00  0.00000000E+00  0.00000000E+00
  0.00000000E+00  0.00000000E+00  0.00000000E+00
  0.00000000E+00  0.00000000E+00  0.00000000E+00
  0.00000000E+00  0.00000000E+00  0.00000000E+00
  0.00000000E+00  0.00000000E+00  0.00000000E+00
  0.00000000E+00  0.00000000E+00  0.00000000E+00
  0.00000000E+00  0.00000000E+00  0.00000000E+00
  0.00000000E+00  0.00000000E+00  0.00000000E+00
  0.00000000E+00  0.00000000E+00  0.00000000E+00
  0.00000000E+00  0.00000000E+00  0.00000000E+00
  0.00000000E+00  0.00000000E+00  0.00000000E+00
  0.00000000E+00  0.00000000E+00  0.00000000E+00
  0.00000000E+00  0.00000000E+00  0.00000000E+00
  0.00000000E+00  0.00000000E+00  0.00000000E+00
  0.00000000E+00  0.00000000E+00  0.00000000E+00
  0.00000000E+00  0.00000000E+00  0.00000000E+00
  0.00000000E+00  0.00000000E+00  0.00000000E+00
