C N H                                   
   1.00000000000000     
    40.0000000000000000    0.0000000000000000    0.0000000000000000
     0.0000000000000000   40.0000000000000000    0.0000000000000000
     0.0000000000000000    0.0000000000000000   40.0000000000000000
   C    N    H 
     4     1     9
Selective dynamics
Direct
  0.5146502521138245  0.4710977667201277  0.4951109644755789   T   T   T
  0.5146563670406508  0.5289098819979685  0.4951450426620028   T   T   T
  0.4776222941879240  0.5194154743849069  0.5016729873283197   T   T   T
  0.4776337216600695  0.4805778539981134  0.5017183369415505   T   T   T
  0.5351152288506782  0.4999948753021499  0.5052436234499140   T   T   T
  0.5370270253812990  0.4999785367739591  0.5307624462120586   T   T   T
  0.4694558736250798  0.4708552232035075  0.5260845948424517   T   T   T
  0.4608216861485559  0.4700630002601329  0.4827114319383270   T   T   T
  0.4693490959469884  0.5291952353967275  0.5259828565466123   T   T   T
  0.4608688687926872  0.5298655004120860  0.4825781650442735   T   T   T
  0.5187002340856992  0.5331312580257190  0.4681980594705948   T   T   T
  0.5227133293268835  0.5515707082989749  0.5083696658874857   T   T   T
  0.5186542602665085  0.4669405051652049  0.4681487801592894   T   T   T
  0.5227327625731348  0.4484071800604212  0.5082720450415437   T   T   T
 
  0.00000000E+00  0.00000000E+00  0.00000000E+00
  0.00000000E+00  0.00000000E+00  0.00000000E+00
  0.00000000E+00  0.00000000E+00  0.00000000E+00
  0.00000000E+00  0.00000000E+00  0.00000000E+00
  0.00000000E+00  0.00000000E+00  0.00000000E+00
  0.00000000E+00  0.00000000E+00  0.00000000E+00
  0.00000000E+00  0.00000000E+00  0.00000000E+00
  0.00000000E+00  0.00000000E+00  0.00000000E+00
  0.00000000E+00  0.00000000E+00  0.00000000E+00
  0.00000000E+00  0.00000000E+00  0.00000000E+00
  0.00000000E+00  0.00000000E+00  0.00000000E+00
  0.00000000E+00  0.00000000E+00  0.00000000E+00
  0.00000000E+00  0.00000000E+00  0.00000000E+00
  0.00000000E+00  0.00000000E+00  0.00000000E+00
