C N H                                   
   1.00000000000000     
    40.0000000000000000    0.0000000000000000    0.0000000000000000
     0.0000000000000000   40.0000000000000000    0.0000000000000000
     0.0000000000000000    0.0000000000000000   40.0000000000000000
   C    N    H 
     6     2     8
Selective dynamics
Direct
  0.4812300881327365  0.5352549115921399  0.4992176419277533   T   T   T
  0.4516589649790436  0.5178121116101168  0.4997383429975645   T   T   T
  0.4516570240847645  0.4821882090906826  0.5002642516552834   T   T   T
  0.4812298775380659  0.4647457220867189  0.5007846318209523   T   T   T
  0.5123394788737416  0.4818027343729064  0.5008054567410396   T   T   T
  0.5123412932766132  0.5181975374659438  0.4991967875414661   T   T   T
  0.5410136191329634  0.4642936716097405  0.5022982093929059   T   T   T
  0.5410147442278536  0.5357063048940109  0.4976987500984348   T   T   T
  0.5640276314584410  0.4746585459603063  0.5039568674417194   T   T   T
  0.5403688555453314  0.4389626371215448  0.5034118434137854   T   T   T
  0.5640290227053667  0.5253387996515033  0.4960417943132671   T   T   T
  0.5403716843767583  0.5610371992642662  0.4965866614819006   T   T   T
  0.4813577944948255  0.4375061080624789  0.5015356021408222   T   T   T
  0.4279998296838066  0.4687287964275562  0.5004020138207209   T   T   T
  0.4280013032568000  0.5312725803127087  0.4995964652922041   T   T   T
  0.4813587882328880  0.5624941304773898  0.4984636799201966   T   T   T
 
  0.00000000E+00  0.00000000E+00  0.00000000E+00
  0.00000000E+00  0.00000000E+00  0.00000000E+00
  0.00000000E+00  0.00000000E+00  0.00000000E+00
  0.00000000E+00  0.00000000E+00  0.00000000E+00
  0.00000000E+00  0.00000000E+00  0.00000000E+00
  0.00000000E+00  0.00000000E+00  0.00000000E+00
  0.00000000E+00  0.00000000E+00  0.00000000E+00
  0.00000000E+00  0.00000000E+00  0.00000000E+00
  0.00000000E+00  0.00000000E+00  0.00000000E+00
  0.00000000E+00  0.00000000E+00  0.00000000E+00
  0.00000000E+00  0.00000000E+00  0.00000000E+00
  0.00000000E+00  0.00000000E+00  0.00000000E+00
  0.00000000E+00  0.00000000E+00  0.00000000E+00
  0.00000000E+00  0.00000000E+00  0.00000000E+00
  0.00000000E+00  0.00000000E+00  0.00000000E+00
  0.00000000E+00  0.00000000E+00  0.00000000E+00
