C N O H                                 
   1.00000000000000     
    40.0000000000000000    0.0000000000000000    0.0000000000000000
     0.0000000000000000   40.0000000000000000    0.0000000000000000
     0.0000000000000000    0.0000000000000000   40.0000000000000000
   C    N    O    H 
     9     1     2     7
Selective dynamics
Direct
  0.5166253630657760  0.4643453706872410  0.4999995704231018   T   T   T
  0.5512965232835880  0.4667656078092124  0.4999976736700744   T   T   T
  0.5663846513299051  0.4985779057572055  0.4999941348210525   T   T   T
  0.5466361271219915  0.5277141973470326  0.4999935202480256   T   T   T
  0.5119722922809296  0.5249530925512055  0.4999959428209400   T   T   T
  0.4967764553252889  0.4932948002660599  0.4999993504261911   T   T   T
  0.4596458221231838  0.4890933075582910  0.5000040213184066   T   T   T
  0.4070703739236250  0.5166121057059906  0.5000064449747627   T   T   T
  0.6019824372090166  0.5013083783513820  0.4999959466160983   T   T   T
  0.6311267999537388  0.5034977898274986  0.4999952086526622   T   T   T
  0.4454514653395391  0.4618587904914722  0.5000044932145173   T   T   T
  0.4433229315458392  0.5186484821725114  0.5000052062183233   T   T   T
  0.3983931878965953  0.5034496274338122  0.4775629897054176   T   T   T
  0.3983717098567059  0.5425251664957602  0.5000183101379532   T   T   T
  0.3983943306620019  0.5034289320624711  0.5224374690833679   T   T   T
  0.4966912766273001  0.5474663386831978  0.4999962976621441   T   T   T
  0.5585276211661210  0.5521943872915493  0.4999921989143851   T   T   T
  0.5667444163239891  0.4443516478371872  0.4999982621068758   T   T   T
  0.5045862149648644  0.4399150716709176  0.5000029589857142   T   T   T
 
  0.00000000E+00  0.00000000E+00  0.00000000E+00
  0.00000000E+00  0.00000000E+00  0.00000000E+00
  0.00000000E+00  0.00000000E+00  0.00000000E+00
  0.00000000E+00  0.00000000E+00  0.00000000E+00
  0.00000000E+00  0.00000000E+00  0.00000000E+00
  0.00000000E+00  0.00000000E+00  0.00000000E+00
  0.00000000E+00  0.00000000E+00  0.00000000E+00
  0.00000000E+00  0.00000000E+00  0.00000000E+00
  0.00000000E+00  0.00000000E+00  0.00000000E+00
  0.00000000E+00  0.00000000E+00  0.00000000E+00
  0.00000000E+00  0.00000000E+00  0.00000000E+00
  0.00000000E+00  0.00000000E+00  0.00000000E+00
  0.00000000E+00  0.00000000E+00  0.00000000E+00
  0.00000000E+00  0.00000000E+00  0.00000000E+00
  0.00000000E+00  0.00000000E+00  0.00000000E+00
  0.00000000E+00  0.00000000E+00  0.00000000E+00
  0.00000000E+00  0.00000000E+00  0.00000000E+00
  0.00000000E+00  0.00000000E+00  0.00000000E+00
  0.00000000E+00  0.00000000E+00  0.00000000E+00
