C O H                                   
   1.00000000000000     
    40.0000000000000000    0.0000000000000000    0.0000000000000000
     0.0000000000000000   40.0000000000000000    0.0000000000000000
     0.0000000000000000    0.0000000000000000   40.0000000000000000
   C    O    H 
     8     1     6
Selective dynamics
Direct
  0.5168953531646383  0.4607065114702520  0.5000000000000000   T   T   T
  0.5478459964077663  0.4782890982072935  0.5000000000000000   T   T   T
  0.5496002004535008  0.5134658551546198  0.5000000000000000   T   T   T
  0.5207889661381443  0.5328107306012816  0.5000000000000000   T   T   T
  0.4893812820339624  0.5158930072449840  0.5000000000000000   T   T   T
  0.4889652884979127  0.4803719577062903  0.5000000000000000   T   T   T
  0.4367070426829638  0.4965258651691628  0.5000000000000000   T   T   T
  0.4558312366670539  0.5261612310538245  0.5000000000000000   T   T   T
  0.4558359649607552  0.4690952782347309  0.5000000000000000   T   T   T
  0.4457038694254724  0.5513261976829607  0.5000000000000000   T   T   T
  0.4098539077990608  0.4925483711445995  0.5000009999999975   T   T   T
  0.5218228550165911  0.5600212504242361  0.5000000000000000   T   T   T
  0.5740209982547573  0.5254734587331962  0.5000000000000000   T   T   T
  0.5709021452711268  0.4637852855160602  0.5000000000000000   T   T   T
  0.5158438932262962  0.4335249016565103  0.5000000000000000   T   T   T
 
  0.00000000E+00  0.00000000E+00  0.00000000E+00
  0.00000000E+00  0.00000000E+00  0.00000000E+00
  0.00000000E+00  0.00000000E+00  0.00000000E+00
  0.00000000E+00  0.00000000E+00  0.00000000E+00
  0.00000000E+00  0.00000000E+00  0.00000000E+00
  0.00000000E+00  0.00000000E+00  0.00000000E+00
  0.00000000E+00  0.00000000E+00  0.00000000E+00
  0.00000000E+00  0.00000000E+00  0.00000000E+00
  0.00000000E+00  0.00000000E+00  0.00000000E+00
  0.00000000E+00  0.00000000E+00  0.00000000E+00
  0.00000000E+00  0.00000000E+00  0.00000000E+00
  0.00000000E+00  0.00000000E+00  0.00000000E+00
  0.00000000E+00  0.00000000E+00  0.00000000E+00
  0.00000000E+00  0.00000000E+00  0.00000000E+00
  0.00000000E+00  0.00000000E+00  0.00000000E+00
