C F O H                                 
   1.00000000000000     
    40.0000000000000000    0.0000000000000000    0.0000000000000000
     0.0000000000000000   40.0000000000000000    0.0000000000000000
     0.0000000000000000    0.0000000000000000   40.0000000000000000
   C    F    O    H 
     9     3     1     7
Selective dynamics
Direct
  0.5066387396201508  0.5362681269409745  0.5001043895042322   T   T   T
  0.4720080012202439  0.5364651501957725  0.5002852418395511   T   T   T
  0.4547527030277615  0.5062156125293903  0.5005459299647492   T   T   T
  0.4719517380216593  0.4759238822990676  0.5005599490885152   T   T   T
  0.5066253321687879  0.4759498078087657  0.5003387647291374   T   T   T
  0.5242969637587035  0.5061283239326045  0.5000986425032938   T   T   T
  0.5617168731621562  0.5074635979407336  0.4997932450827315   T   T   T
  0.5809620365116264  0.4751554631897290  0.4995979598634514   T   T   T
  0.4173478535895351  0.5055925143152435  0.4999859914391062   T   T   T
  0.4052955226949816  0.4956245308286095  0.4696863002355386   T   T   T
  0.4045956690380147  0.4838475280467126  0.5228021221235836   T   T   T
  0.4035561993487687  0.5358485759666513  0.5064239768044829   T   T   T
  0.5761171937113914  0.5344736937459855  0.4996850800926947   T   T   T
  0.5749604181353345  0.4601554786576511  0.5216405763906090   T   T   T
  0.5744793959400694  0.4601172407071919  0.4777186082620369   T   T   T
  0.6075749141081730  0.4806492976009062  0.4993048748751988   T   T   T
  0.5197838381607504  0.4523094433298666  0.5003608413408449   T   T   T
  0.4582757555090511  0.4525469126416658  0.5007923724227117   T   T   T
  0.4584031276998674  0.5598490170848350  0.5003180759231093   T   T   T
  0.5206577245729656  0.5594158022376644  0.4999570575144143   T   T   T
 
  0.00000000E+00  0.00000000E+00  0.00000000E+00
  0.00000000E+00  0.00000000E+00  0.00000000E+00
  0.00000000E+00  0.00000000E+00  0.00000000E+00
  0.00000000E+00  0.00000000E+00  0.00000000E+00
  0.00000000E+00  0.00000000E+00  0.00000000E+00
  0.00000000E+00  0.00000000E+00  0.00000000E+00
  0.00000000E+00  0.00000000E+00  0.00000000E+00
  0.00000000E+00  0.00000000E+00  0.00000000E+00
  0.00000000E+00  0.00000000E+00  0.00000000E+00
  0.00000000E+00  0.00000000E+00  0.00000000E+00
  0.00000000E+00  0.00000000E+00  0.00000000E+00
  0.00000000E+00  0.00000000E+00  0.00000000E+00
  0.00000000E+00  0.00000000E+00  0.00000000E+00
  0.00000000E+00  0.00000000E+00  0.00000000E+00
  0.00000000E+00  0.00000000E+00  0.00000000E+00
  0.00000000E+00  0.00000000E+00  0.00000000E+00
  0.00000000E+00  0.00000000E+00  0.00000000E+00
  0.00000000E+00  0.00000000E+00  0.00000000E+00
  0.00000000E+00  0.00000000E+00  0.00000000E+00
  0.00000000E+00  0.00000000E+00  0.00000000E+00
