!TPSSh aug-cc-pVTZ d3 TightSCF SlowConv RIJCOSX defgrid2

%pal
nprocs 15
end

%scf
MaxIter 1500
end

%maxcore 3500

!CPCM
%cpcm smd true
SMDsolvent "WATER"
surfacetype gepol_ses
rsolv 1.40
end

* xyz 1 1
O           1.69028117689558      3.37274922443931      1.11633962460164
N           2.64508834536190      2.69181678814397      1.22297469266331
C           3.79364432352713      2.91279474875315      0.25576222257425
C           4.41690502024746      1.55735729533319     -0.09476254953002
C           4.67733661079369      0.66452443423856      1.10383738520721
C           3.37045256120440      0.39731336490166      1.83970504256275
C           2.66799498342616      1.66587031114268      2.34113152200502
C           4.78664458888588      3.85507766004816      0.96313769772216
C           3.22421911588956      3.59522010625645     -0.98009687677033
C           3.40931008600286      2.31997828440322      3.52226317122572
C           1.22422162814495      1.38082655937204      2.72997366883812
H           5.34884078835654      1.75906997936546     -0.64631285848774
H           3.75796437018198      1.02598628901689     -0.80296027442862
H           5.40042447879038      1.13288543625525      1.79577627089786
H           3.53775872621371     -0.24608048611092      2.71808872702049
H           2.68001252116369     -0.14819003704925      1.17146867751790
H           4.27985954283953      4.75359746707821      1.35111103609992
H           5.34884375946348      3.37256256672533      1.77397975191263
H           5.50897207558620      4.17777907092180      0.19549951134991
H           2.86192360014995      4.61263606074173     -0.76851470910027
H           2.40394906868267      3.00772813007802     -1.42457373280581
H           4.03437736873618      3.66442610394421     -1.72341542384058
H           2.99610733981189      3.31548991868264      3.75198408999862
H           4.49382233017226      2.39980342242512      3.36909605423605
H           3.23745517084425      1.67163833982347      4.39703137060060
H           0.73408005868470      2.25325337031983      3.18793394277703
H           0.62783916292596      1.05008904763585      1.86346734061458
H           1.23475255281246      0.56405590576186      3.46909994981412
C           5.33166078892950     -0.63197308222401      0.65212318052779
O           5.67009393201701     -0.85879399844318     -0.47432905828358
O           5.48410818268575     -1.47484874010900      1.67290341721619
H           5.91800326157221     -2.28673051887174      1.34333539126303
*
