!r2SCANh freq aug-cc-pVTZ d3 TightSCF SlowConv RIJCOSX defgrid2

%pal
nprocs 12
end

%scf
MaxIter 1500
end

%maxcore 5000

!CPCM
%cpcm smd true
SMDsolvent "MeCN"
surfacetype gepol_ses
rsolv 2.19
end 

* xyz 0 1
  C           0.86701562432470     -1.19855301103311      0.00016746547904
  C           1.23087972724226      0.14966871917256      0.00028092097232
  C           0.20729627938452      1.10093643847544      0.00029465473478
  C          -1.13800469409323      0.75107089004958      0.00011831117616
  C          -1.48768523249463     -0.60745261988991     -0.00006810465535
  C          -0.46838116959388     -1.55943901266392     -0.00002614592400
  H          -0.73304520459076     -2.60985114697810      0.00020500546722
  C          -2.92315021178713     -1.02825348489282     -0.00036626559500
  H          -3.01314529888708     -2.11252494554601      0.00039402404935
  H          -3.45074972462491     -0.64460258903454     -0.87615815923072
  H          -3.45154198028638     -0.64334840543539      0.87435791084079
  C          -2.19558472547008      1.81077401415362      0.00012313623555
  H          -2.84151263236942      1.72918561909109      0.87665881930062
  H          -2.84417317495327      1.72632568128246     -0.87413097536001
  H          -1.75335677412390      2.80483171482171     -0.00222828014875
  H           0.47446652377663      2.15171909167911      0.00017592932034
  C           2.61953386122355      0.60884246862680      0.00045107207083
  C           3.71681108242815     -0.14781384406715     -0.00049286904544
  H           3.68161296061879     -1.22966000107873     -0.00164443966843
  H           4.69749840949010      0.30771938886096     -0.00008257644090
  H           2.73854244048933      1.68813977766723      0.00122191279407
  H           1.62390541429664     -1.97116714326088      0.00026865362751
*
