!PBE0 def2-SV(p) Opt Freq d3 TightSCF SlowConv RIJCOSX defgrid2
 
%pal
nprocs 4
end
 
%scf
MaxIter 1500
end
 
%maxcore 3000
 

 
* xyz 1 2
C     2.5244706   -0.7640939    0.5749756 
N     1.2525993   -1.2727058    0.3021304 
C     0.2983024   -0.6337669   -0.2679208 
N     0.3140639    0.7222174   -0.3402718 
C    -0.8982961    1.4821133   -0.5313827 
C    -1.9673376    1.2161150    0.5444264 
C    -2.8233502   -0.0161071    0.2683096 
C    -2.0437370   -1.3271160    0.3214855 
C    -0.9067558   -1.4014102   -0.7100346 
H    -1.2573971   -1.0347755   -1.6758687 
H    -0.6019248   -2.4420299   -0.8217344 
H    -1.6350399   -1.4838152    1.3210996 
H    -2.7331218   -2.1467081    0.1175954 
H    -3.6206756   -0.0558548    1.0123065 
H    -3.2991971    0.0855687   -0.7093838 
H    -1.4822822    1.1232537    1.5177858 
H    -2.6202626    2.0888007    0.5758628 
H    -1.3176764    1.2444699   -1.5145564 
H    -0.6297977    2.5388123   -0.5149733 
C     1.4933425    1.4233146    0.1193714 
C     2.7397575    0.5821666   -0.1262002 
H     3.6218609    1.0847696    0.2662860 
H     2.8716661    0.4212263   -1.1976538 
H     1.5665801    2.3666799   -0.4304117 
H     1.3849138    1.6715395    1.1850474 
H     2.6442623   -0.7207919    1.6681716 
H     3.2635519   -1.5041338    0.2371045
*
