C O S H                                 
   1.00000000000000     
    40.0000000000000000    0.0000000000000000    0.0000000000000000
     0.0000000000000000   40.0000000000000000    0.0000000000000000
     0.0000000000000000    0.0000000000000000   40.0000000000000000
   C    O    S    H 
     7     1     1     8
Selective dynamics
Direct
  0.5514276232425657  0.5015784733738272  0.4969298147011474   T   T   T
  0.5363640016134575  0.5338033042710154  0.4983594296440187   T   T   T
  0.5022876311927565  0.5365112196581125  0.5008280053666470   T   T   T
  0.4820999339602582  0.5071970570028328  0.5018140465925511   T   T   T
  0.4969294699636130  0.4749617654904355  0.5009613114168913   T   T   T
  0.5311341642818637  0.4723322631061100  0.4985993719135708   T   T   T
  0.4262879023490057  0.4846331185145971  0.5037020900652208   T   T   T
  0.4493558703133402  0.5126968408576958  0.5034574124170145   T   T   T
  0.5936391795987906  0.4957404777445641  0.4930363577750243   T   T   T
  0.5428488488965810  0.4477690143072811  0.4978403161102012   T   T   T
  0.4816903989951716  0.4524989587098715  0.5021008111034130   T   T   T
  0.4015020151514359  0.4959913531258064  0.5046127373521236   T   T   T
  0.4292982634961410  0.4699067777000408  0.4807780926114991   T   T   T
  0.4306003801665225  0.4691533291057440  0.5259121846119159   T   T   T
  0.4900625357658658  0.5607933349717483  0.5019301567498826   T   T   T
  0.5518810230763731  0.5561296549961301  0.4974467967601527   T   T   T
  0.6025887579362273  0.5283040570641988  0.4916890648087451   T   T   T
 
  0.00000000E+00  0.00000000E+00  0.00000000E+00
  0.00000000E+00  0.00000000E+00  0.00000000E+00
  0.00000000E+00  0.00000000E+00  0.00000000E+00
  0.00000000E+00  0.00000000E+00  0.00000000E+00
  0.00000000E+00  0.00000000E+00  0.00000000E+00
  0.00000000E+00  0.00000000E+00  0.00000000E+00
  0.00000000E+00  0.00000000E+00  0.00000000E+00
  0.00000000E+00  0.00000000E+00  0.00000000E+00
  0.00000000E+00  0.00000000E+00  0.00000000E+00
  0.00000000E+00  0.00000000E+00  0.00000000E+00
  0.00000000E+00  0.00000000E+00  0.00000000E+00
  0.00000000E+00  0.00000000E+00  0.00000000E+00
  0.00000000E+00  0.00000000E+00  0.00000000E+00
  0.00000000E+00  0.00000000E+00  0.00000000E+00
  0.00000000E+00  0.00000000E+00  0.00000000E+00
  0.00000000E+00  0.00000000E+00  0.00000000E+00
  0.00000000E+00  0.00000000E+00  0.00000000E+00
