!PBE0 def2-SV(p) Opt Freq d3 TightSCF SlowConv RIJCOSX defgrid2
 
%pal
nprocs 4
end
 
%scf
MaxIter 1500
end
 
%maxcore 3000
 

 
* xyz 0 1
C     1.5417998   -1.1316041   -0.4110845 
C     2.9241904   -1.1168713   -0.4211916 
C     3.6131459    0.0085393    0.0007757 
C     2.9054125    1.1197138    0.4279624 
C     1.5224446    1.1069506    0.4338819 
C     0.8150118   -0.0222799    0.0219670 
C    -0.6571419   -0.0400084    0.0297597 
C    -1.3394383   -1.1385751    0.3508075 
C    -2.8327002   -1.2381491    0.3727813 
C    -3.5000318    0.1329006    0.3052056 
C    -2.8056862    0.9867545   -0.7494312 
C    -1.3622238    1.2440814   -0.3268794 
H    -0.8164778    1.7477380   -1.1286716 
H    -1.3573501    1.9097361    0.5423198 
H    -3.3288503    1.9366114   -0.8774311 
H    -2.8177711    0.4608746   -1.7065571 
H    -4.5606508    0.0209289    0.0718613 
H    -3.4182846    0.6266818    1.2759814 
H    -3.1491942   -1.8454793   -0.4832069 
H    -3.1489837   -1.7709300    1.2738266 
H    -0.8110041   -2.0437793    0.6196621 
H     0.9874986    1.9798916    0.7768359 
H     3.4344125    2.0028477    0.7573962 
H     4.6933297    0.0207579   -0.0073554 
H     3.4678534   -1.9855755   -0.7648295 
H     1.0143557   -2.0074540   -0.7597402
*
