C N O H                                 
   1.00000000000000     
    40.0000000000000000    0.0000000000000000    0.0000000000000000
     0.0000000000000000   40.0000000000000000    0.0000000000000000
     0.0000000000000000    0.0000000000000000   40.0000000000000000
   C    N    O    H 
    10     1     1    13
Selective dynamics
Direct
  0.4662332577080294  0.5305981015913164  0.5029195178114109   T   T   T
  0.4330912347087337  0.5331912380453689  0.4940151734322391   T   T   T
  0.4132611243540221  0.5045720164948418  0.4905697355809687   T   T   T
  0.4270691264801106  0.4729764080830434  0.4963926024622293   T   T   T
  0.4602569907510034  0.4697232633686310  0.5048588601790328   T   T   T
  0.4807290539576106  0.4985874156362209  0.5079358831950433   T   T   T
  0.5331938158286025  0.4655330418343606  0.5079512758093744   T   T   T
  0.5563200833007413  0.4744771569364352  0.4782636559966226   T   T   T
  0.5589657260667847  0.5304761878968791  0.4948351315265629   T   T   T
  0.5354845166684061  0.5231479085087525  0.5245292369927208   T   T   T
  0.5138264605538722  0.4953189739329398  0.5157610534709803   T   T   T
  0.5774254699916311  0.5014216668993667  0.4868336446427265   T   T   T
  0.5483469962763250  0.4588836522627268  0.5296163101039318   T   T   T
  0.5172302985210734  0.4447801553827946  0.5009172433892271   T   T   T
  0.5408997399528727  0.4806091777380122  0.4563915135239476   T   T   T
  0.5722269552528901  0.4531252345142505  0.4726189755795203   T   T   T
  0.5768457482077263  0.5497289303182854  0.5019178982622451   T   T   T
  0.5442367332989712  0.5389496712604915  0.4732734807351346   T   T   T
  0.5211532978792358  0.5450373493478695  0.5316562882216894   T   T   T
  0.5506202883974571  0.5151941187981839  0.5458046716081043   T   T   T
  0.4701436524416380  0.4452430615108366  0.5105143412356462   T   T   T
  0.4115852253063437  0.4508556347167072  0.4946321379172117   T   T   T
  0.3872230635216174  0.5068977614411906  0.4836192578956467   T   T   T
  0.4224702878253122  0.5576524702016912  0.4894088978956468   T   T   T
  0.4811578527489683  0.5530204032788084  0.5047642125321777   T   T   T
 
  0.00000000E+00  0.00000000E+00  0.00000000E+00
  0.00000000E+00  0.00000000E+00  0.00000000E+00
  0.00000000E+00  0.00000000E+00  0.00000000E+00
  0.00000000E+00  0.00000000E+00  0.00000000E+00
  0.00000000E+00  0.00000000E+00  0.00000000E+00
  0.00000000E+00  0.00000000E+00  0.00000000E+00
  0.00000000E+00  0.00000000E+00  0.00000000E+00
  0.00000000E+00  0.00000000E+00  0.00000000E+00
  0.00000000E+00  0.00000000E+00  0.00000000E+00
  0.00000000E+00  0.00000000E+00  0.00000000E+00
  0.00000000E+00  0.00000000E+00  0.00000000E+00
  0.00000000E+00  0.00000000E+00  0.00000000E+00
  0.00000000E+00  0.00000000E+00  0.00000000E+00
  0.00000000E+00  0.00000000E+00  0.00000000E+00
  0.00000000E+00  0.00000000E+00  0.00000000E+00
  0.00000000E+00  0.00000000E+00  0.00000000E+00
  0.00000000E+00  0.00000000E+00  0.00000000E+00
  0.00000000E+00  0.00000000E+00  0.00000000E+00
  0.00000000E+00  0.00000000E+00  0.00000000E+00
  0.00000000E+00  0.00000000E+00  0.00000000E+00
  0.00000000E+00  0.00000000E+00  0.00000000E+00
  0.00000000E+00  0.00000000E+00  0.00000000E+00
  0.00000000E+00  0.00000000E+00  0.00000000E+00
  0.00000000E+00  0.00000000E+00  0.00000000E+00
  0.00000000E+00  0.00000000E+00  0.00000000E+00
