C N H                                   
   1.00000000000000     
    40.0000000000000000    0.0000000000000000    0.0000000000000000
     0.0000000000000000   40.0000000000000000    0.0000000000000000
     0.0000000000000000    0.0000000000000000   40.0000000000000000
   C    N    H 
     3     2     4
Selective dynamics
Direct
  0.5038740235192719  0.5252414137726671  0.5000009999999975   T   T   T
  0.5254176267605146  0.4958297163078740  0.5000000000000000   T   T   T
  0.5028944588667705  0.4686546054257008  0.5000009999999975   T   T   T
  0.4716317633346586  0.4790721337063510  0.4999990000000025   T   T   T
  0.4733982537645655  0.5141584961972594  0.4999990000000025   T   T   T
  0.4517891627468232  0.5274656803576024  0.4999990000000025   T   T   T
  0.5084311474972351  0.4422897238470767  0.5000009999999975   T   T   T
  0.5523403701321674  0.4958489815988968  0.5000000000000000   T   T   T
  0.5102221933779886  0.5514382487865676  0.5000009999999975   T   T   T
 
  0.00000000E+00  0.00000000E+00  0.00000000E+00
  0.00000000E+00  0.00000000E+00  0.00000000E+00
  0.00000000E+00  0.00000000E+00  0.00000000E+00
  0.00000000E+00  0.00000000E+00  0.00000000E+00
  0.00000000E+00  0.00000000E+00  0.00000000E+00
  0.00000000E+00  0.00000000E+00  0.00000000E+00
  0.00000000E+00  0.00000000E+00  0.00000000E+00
  0.00000000E+00  0.00000000E+00  0.00000000E+00
  0.00000000E+00  0.00000000E+00  0.00000000E+00
