C N O H                                 
   1.00000000000000     
    40.0000000000000000    0.0000000000000000    0.0000000000000000
     0.0000000000000000   40.0000000000000000    0.0000000000000000
     0.0000000000000000    0.0000000000000000   40.0000000000000000
   C    N    O    H 
    10     1     1    17
Selective dynamics
Direct
  0.4702416466847694  0.4681521143749734  0.5041284004020881   T   T   T
  0.4915201108982643  0.4992239271447616  0.5089351783713596   T   T   T
  0.4784718543595474  0.5301419697930072  0.5038427041863116   T   T   T
  0.4425091495954874  0.5367276485245398  0.4946175953235254   T   T   T
  0.4242949039183088  0.5052978870248666  0.4825401411718389   T   T   T
  0.4327269429956289  0.4757551423325737  0.5052738661934697   T   T   T
  0.5463695546463896  0.5211995309147284  0.5280678354264765   T   T   T
  0.5659331201047877  0.5316873301338063  0.4969760079827239   T   T   T
  0.5629723719866888  0.4761544799876987  0.4763570571709934   T   T   T
  0.5433404982286163  0.4651537531185781  0.5072490124042801   T   T   T
  0.5239669889496952  0.4930987066073698  0.5212310576436181   T   T   T
  0.5847078386405755  0.5038340793849940  0.4838929773576766   T   T   T
  0.4254040647246669  0.4818010401231447  0.5311848311948566   T   T   T
  0.4185481952881602  0.4533246839363017  0.4980085991130778   T   T   T
  0.4322853196472067  0.4993327789936970  0.4568012011767522   T   T   T
  0.3971332328973887  0.5096508838947571  0.4816999935562833   T   T   T
  0.4289635110225660  0.5473438134248667  0.5163285089647687   T   T   T
  0.4414107135500132  0.5563027696713263  0.4752197523024080   T   T   T
  0.4941198174085244  0.5522593739937705  0.5070452298479822   T   T   T
  0.5322054022945082  0.5423122915185985  0.5384053431991589   T   T   T
  0.5842739273131698  0.5512201451346428  0.5029895962231521   T   T   T
  0.5487782252644990  0.5411853625107526  0.4774808628634943   T   T   T
  0.5454663711654106  0.4833678376281725  0.4561392120590924   T   T   T
  0.5609942863906170  0.4564433825920773  0.5265465398842082   T   T   T
  0.5269289801351462  0.4441574911788564  0.5008531034752792   T   T   T
  0.5791541825164330  0.4558993092710253  0.4672817895049803   T   T   T
  0.5643074755623232  0.5129779008265842  0.5473338730609427   T   T   T
  0.4763032103517162  0.4562264513228271  0.4799713949967952   T   T   T
  0.4766701034588863  0.4497689146366994  0.5236013349424198   T   T   T
 
  0.00000000E+00  0.00000000E+00  0.00000000E+00
  0.00000000E+00  0.00000000E+00  0.00000000E+00
  0.00000000E+00  0.00000000E+00  0.00000000E+00
  0.00000000E+00  0.00000000E+00  0.00000000E+00
  0.00000000E+00  0.00000000E+00  0.00000000E+00
  0.00000000E+00  0.00000000E+00  0.00000000E+00
  0.00000000E+00  0.00000000E+00  0.00000000E+00
  0.00000000E+00  0.00000000E+00  0.00000000E+00
  0.00000000E+00  0.00000000E+00  0.00000000E+00
  0.00000000E+00  0.00000000E+00  0.00000000E+00
  0.00000000E+00  0.00000000E+00  0.00000000E+00
  0.00000000E+00  0.00000000E+00  0.00000000E+00
  0.00000000E+00  0.00000000E+00  0.00000000E+00
  0.00000000E+00  0.00000000E+00  0.00000000E+00
  0.00000000E+00  0.00000000E+00  0.00000000E+00
  0.00000000E+00  0.00000000E+00  0.00000000E+00
  0.00000000E+00  0.00000000E+00  0.00000000E+00
  0.00000000E+00  0.00000000E+00  0.00000000E+00
  0.00000000E+00  0.00000000E+00  0.00000000E+00
  0.00000000E+00  0.00000000E+00  0.00000000E+00
  0.00000000E+00  0.00000000E+00  0.00000000E+00
  0.00000000E+00  0.00000000E+00  0.00000000E+00
  0.00000000E+00  0.00000000E+00  0.00000000E+00
  0.00000000E+00  0.00000000E+00  0.00000000E+00
  0.00000000E+00  0.00000000E+00  0.00000000E+00
  0.00000000E+00  0.00000000E+00  0.00000000E+00
  0.00000000E+00  0.00000000E+00  0.00000000E+00
  0.00000000E+00  0.00000000E+00  0.00000000E+00
  0.00000000E+00  0.00000000E+00  0.00000000E+00
