C H                                     
   1.00000000000000     
    40.0000000000000000    0.0000000000000000    0.0000000000000000
     0.0000000000000000   40.0000000000000000    0.0000000000000000
     0.0000000000000000    0.0000000000000000   40.0000000000000000
   C    H 
    10     8
Selective dynamics
Direct
  0.5612584214622988  0.4825657998585874  0.5000000000000000   T   T   T
  0.5612584214622988  0.5174322001414176  0.5000000000000000   T   T   T
  0.5308833778144048  0.5351290421639944  0.5000000000000000   T   T   T
  0.5000000000000000  0.5179047024830798  0.5000000000000000   T   T   T
  0.4691176221855998  0.5351300421639918  0.5000000000000000   T   T   T
  0.4387415785377014  0.5174342001414125  0.5000000000000000   T   T   T
  0.4387415785377014  0.4825677998585823  0.5000000000000000   T   T   T
  0.4691166221855952  0.4648709578360056  0.5000000000000000   T   T   T
  0.5000000000000000  0.4820952975169200  0.5000000000000000   T   T   T
  0.5308823778144002  0.4648699578360082  0.5000000000000000   T   T   T
  0.5310162411532303  0.4376135502484929  0.5000000000000000   T   T   T
  0.4689817588467748  0.4376145502484974  0.5000000000000000   T   T   T
  0.4151925487748296  0.4688915227472544  0.5000000000000000   T   T   T
  0.4151935487748271  0.5311114772527451  0.5000000000000000   T   T   T
  0.4689837588467768  0.5623864497515072  0.5000000000000000   T   T   T
  0.5310182411532253  0.5623854497515026  0.5000000000000000   T   T   T
  0.5848074512251704  0.5311084772527456  0.5000000000000000   T   T   T
  0.5848064512251729  0.4688895227472595  0.5000000000000000   T   T   T
 
  0.00000000E+00  0.00000000E+00  0.00000000E+00
  0.00000000E+00  0.00000000E+00  0.00000000E+00
  0.00000000E+00  0.00000000E+00  0.00000000E+00
  0.00000000E+00  0.00000000E+00  0.00000000E+00
  0.00000000E+00  0.00000000E+00  0.00000000E+00
  0.00000000E+00  0.00000000E+00  0.00000000E+00
  0.00000000E+00  0.00000000E+00  0.00000000E+00
  0.00000000E+00  0.00000000E+00  0.00000000E+00
  0.00000000E+00  0.00000000E+00  0.00000000E+00
  0.00000000E+00  0.00000000E+00  0.00000000E+00
  0.00000000E+00  0.00000000E+00  0.00000000E+00
  0.00000000E+00  0.00000000E+00  0.00000000E+00
  0.00000000E+00  0.00000000E+00  0.00000000E+00
  0.00000000E+00  0.00000000E+00  0.00000000E+00
  0.00000000E+00  0.00000000E+00  0.00000000E+00
  0.00000000E+00  0.00000000E+00  0.00000000E+00
  0.00000000E+00  0.00000000E+00  0.00000000E+00
  0.00000000E+00  0.00000000E+00  0.00000000E+00
