C N H                                   
   1.00000000000000     
    40.0000000000000000    0.0000000000000000    0.0000000000000000
     0.0000000000000000   40.0000000000000000    0.0000000000000000
     0.0000000000000000    0.0000000000000000   40.0000000000000000
   C    N    H 
     6     1    15
Selective dynamics
Direct
  0.4421932065734089  0.4710809376915527  0.4926629221846056   T   T   T
  0.4691540707927177  0.4983815955039908  0.4931781785290520   T   T   T
  0.5319839245253133  0.4938078044820140  0.4917132164537117   T   T   T
  0.5403500477898537  0.5314079937307888  0.4912442749613660   T   T   T
  0.5601302190629476  0.4740438901386376  0.5084804320560132   T   T   T
  0.4560844477017718  0.5296920563484331  0.5111898405215518   T   T   T
  0.5001995027096929  0.4849060266596811  0.5079421677461917   T   T   T
  0.5013492298613720  0.4910335935786252  0.5327406312489563   T   T   T
  0.5420904058792303  0.5411725604283415  0.5169416316113060   T   T   T
  0.5212476175021709  0.5458854120220541  0.4778178038630170   T   T   T
  0.5644874155651719  0.5358607557773257  0.4787913391567848   T   T   T
  0.5548637026067860  0.4471025134015873  0.5078887419374206   T   T   T
  0.5841672671846613  0.4785978957742624  0.4959806493009556   T   T   T
  0.5628615137383232  0.4816484362332988  0.5348178105520760   T   T   T
  0.5299110347729770  0.4852885859143008  0.4655190062341125   T   T   T
  0.4745311742372936  0.5500171231389207  0.5109235234832563   T   T   T
  0.4503438694220387  0.5237382505152119  0.5374745638812722   T   T   T
  0.4329507432696740  0.5389421733152662  0.4995278714136700   T   T   T
  0.4749255428943772  0.5050874056278563  0.4670342645538302   T   T   T
  0.4509746350208575  0.4490414884886807  0.4788402840247459   T   T   T
  0.4362002331242923  0.4631493278587894  0.5183346816497751   T   T   T
  0.4189991957650709  0.4801161733703970  0.4809571646363264   T   T   T
 
  0.00000000E+00  0.00000000E+00  0.00000000E+00
  0.00000000E+00  0.00000000E+00  0.00000000E+00
  0.00000000E+00  0.00000000E+00  0.00000000E+00
  0.00000000E+00  0.00000000E+00  0.00000000E+00
  0.00000000E+00  0.00000000E+00  0.00000000E+00
  0.00000000E+00  0.00000000E+00  0.00000000E+00
  0.00000000E+00  0.00000000E+00  0.00000000E+00
  0.00000000E+00  0.00000000E+00  0.00000000E+00
  0.00000000E+00  0.00000000E+00  0.00000000E+00
  0.00000000E+00  0.00000000E+00  0.00000000E+00
  0.00000000E+00  0.00000000E+00  0.00000000E+00
  0.00000000E+00  0.00000000E+00  0.00000000E+00
  0.00000000E+00  0.00000000E+00  0.00000000E+00
  0.00000000E+00  0.00000000E+00  0.00000000E+00
  0.00000000E+00  0.00000000E+00  0.00000000E+00
  0.00000000E+00  0.00000000E+00  0.00000000E+00
  0.00000000E+00  0.00000000E+00  0.00000000E+00
  0.00000000E+00  0.00000000E+00  0.00000000E+00
  0.00000000E+00  0.00000000E+00  0.00000000E+00
  0.00000000E+00  0.00000000E+00  0.00000000E+00
  0.00000000E+00  0.00000000E+00  0.00000000E+00
  0.00000000E+00  0.00000000E+00  0.00000000E+00
