C H                                     
   1.00000000000000     
    40.0000000000000000    0.0000000000000000    0.0000000000000000
     0.0000000000000000   40.0000000000000000    0.0000000000000000
     0.0000000000000000    0.0000000000000000   40.0000000000000000
   C    H 
    10    12
Selective dynamics
Direct
  0.5269032033372200  0.4683402317055087  0.5000045612070567   T   T   T
  0.5357903719337637  0.5030058337486473  0.5000029148480687   T   T   T
  0.5099263671830722  0.5272201380442562  0.5000019266853909   T   T   T
  0.4767407489335346  0.5184176259851937  0.5000006029007662   T   T   T
  0.4683011170024308  0.4834983525253211  0.5000016268548736   T   T   T
  0.4940011115772512  0.4592353205641270  0.5000047929154899   T   T   T
  0.4328736461232490  0.4729402335029573  0.4999996476168444   T   T   T
  0.4499307021459195  0.5442733478620895  0.4999977220573121   T   T   T
  0.5694651413171420  0.5142414980240061  0.5000026251263966   T   T   T
  0.5971931734833267  0.4942857579688822  0.4999944058739706   T   T   T
  0.4871272874334596  0.4330445954834453  0.5000064554498571   T   T   T
  0.4302583326744439  0.4458896374370825  0.5000013211960299   T   T   T
  0.4198031864316620  0.4831956156244283  0.4782183740326068   T   T   T
  0.4197990182780600  0.4831989912076901  0.5217768984027270   T   T   T
  0.4337992120842515  0.5416543942017271  0.5219094116467258   T   T   T
  0.4337984666910469  0.5416496272219075  0.4780873911513115   T   T   T
  0.4605212179202667  0.5693167603718798  0.4999950807507856   T   T   T
  0.5168348935331099  0.5534261934808051  0.5000000066148798   T   T   T
  0.5958678721728433  0.4672836871376020  0.4999860632818659   T   T   T
  0.6218302236966691  0.5054048681142718  0.4999925290463901   T   T   T
  0.5730988392775138  0.5411343582057563  0.5000072784446881   T   T   T
  0.5461348667697737  0.4493439315824336  0.5000083638959767   T   T   T
 
  0.00000000E+00  0.00000000E+00  0.00000000E+00
  0.00000000E+00  0.00000000E+00  0.00000000E+00
  0.00000000E+00  0.00000000E+00  0.00000000E+00
  0.00000000E+00  0.00000000E+00  0.00000000E+00
  0.00000000E+00  0.00000000E+00  0.00000000E+00
  0.00000000E+00  0.00000000E+00  0.00000000E+00
  0.00000000E+00  0.00000000E+00  0.00000000E+00
  0.00000000E+00  0.00000000E+00  0.00000000E+00
  0.00000000E+00  0.00000000E+00  0.00000000E+00
  0.00000000E+00  0.00000000E+00  0.00000000E+00
  0.00000000E+00  0.00000000E+00  0.00000000E+00
  0.00000000E+00  0.00000000E+00  0.00000000E+00
  0.00000000E+00  0.00000000E+00  0.00000000E+00
  0.00000000E+00  0.00000000E+00  0.00000000E+00
  0.00000000E+00  0.00000000E+00  0.00000000E+00
  0.00000000E+00  0.00000000E+00  0.00000000E+00
  0.00000000E+00  0.00000000E+00  0.00000000E+00
  0.00000000E+00  0.00000000E+00  0.00000000E+00
  0.00000000E+00  0.00000000E+00  0.00000000E+00
  0.00000000E+00  0.00000000E+00  0.00000000E+00
  0.00000000E+00  0.00000000E+00  0.00000000E+00
  0.00000000E+00  0.00000000E+00  0.00000000E+00
