C N O H                                 
   1.00000000000000     
    25.0000000000000000    0.0000000000000000    0.0000000000000000
     0.0000000000000000   25.0000000000000000    0.0000000000000000
     0.0000000000000000    0.0000000000000000   25.0000000000000000
   C    N    O    H 
     9     1     2    16
Selective dynamics
Direct
  0.5143094183125795  0.5285956706370931  0.4568180086416919   T   T   T
  0.5396318218653986  0.4742524023097387  0.4412438349517167   T   T   T
  0.5498685580524925  0.4394125150471719  0.4892426021938905   T   T   T
  0.5000194994598209  0.4274578851565825  0.5207782622997241   T   T   T
  0.4722355657228584  0.4790329739954070  0.5409549387058348   T   T   T
  0.5569617175502209  0.5660662779179443  0.4807958469801658   T   T   T
  0.4898605832686687  0.5542909135018741  0.4068277505021947   T   T   T
  0.5026151292381541  0.5022296057023395  0.5893133551032238   T   T   T
  0.4146124333409993  0.4657029351441981  0.5570582832394547   T   T   T
  0.4701155862413465  0.5200328309159816  0.4968355398504987   T   T   T
  0.4385505106701015  0.5601005266745318  0.5046461125368936   T   T   T
  0.5945696245746991  0.4227749914730191  0.5017140981122361   T   T   T
  0.5768462621943564  0.4814310578568093  0.4191557384533603   T   T   T
  0.5117333660080341  0.4526318364572058  0.4148303719807240   T   T   T
  0.5092397043477034  0.4016564033758879  0.5550376798282624   T   T   T
  0.4723125322271282  0.4058620649762635  0.4941454597795945   T   T   T
  0.5378335788898585  0.6021047099115358  0.4970033299921348   T   T   T
  0.5801471080279523  0.5467676213339895  0.5126820811818967   T   T   T
  0.5850536705426866  0.5781782929034004  0.4492447678006237   T   T   T
  0.4742252082277742  0.5942499263777253  0.4157791202323938   T   T   T
  0.4572722621935327  0.5295458541945665  0.3908401243666226   T   T   T
  0.5210022118318850  0.5579639115594401  0.3760681065048543   T   T   T
  0.4864640686086443  0.5417469951238810  0.5995732664295976   T   T   T
  0.5456779903041851  0.5060699057946814  0.5817190014459342   T   T   T
  0.4974006217585042  0.4756272326083232  0.6238973134757319   T   T   T
  0.3946978739024641  0.5006646747103142  0.5744513161267321   T   T   T
  0.3914458693884520  0.4519781120909776  0.5223445029045223   T   T   T
  0.4152972232495054  0.4335728722491211  0.5870011863794912   T   T   T
 
  0.00000000E+00  0.00000000E+00  0.00000000E+00
  0.00000000E+00  0.00000000E+00  0.00000000E+00
  0.00000000E+00  0.00000000E+00  0.00000000E+00
  0.00000000E+00  0.00000000E+00  0.00000000E+00
  0.00000000E+00  0.00000000E+00  0.00000000E+00
  0.00000000E+00  0.00000000E+00  0.00000000E+00
  0.00000000E+00  0.00000000E+00  0.00000000E+00
  0.00000000E+00  0.00000000E+00  0.00000000E+00
  0.00000000E+00  0.00000000E+00  0.00000000E+00
  0.00000000E+00  0.00000000E+00  0.00000000E+00
  0.00000000E+00  0.00000000E+00  0.00000000E+00
  0.00000000E+00  0.00000000E+00  0.00000000E+00
  0.00000000E+00  0.00000000E+00  0.00000000E+00
  0.00000000E+00  0.00000000E+00  0.00000000E+00
  0.00000000E+00  0.00000000E+00  0.00000000E+00
  0.00000000E+00  0.00000000E+00  0.00000000E+00
  0.00000000E+00  0.00000000E+00  0.00000000E+00
  0.00000000E+00  0.00000000E+00  0.00000000E+00
  0.00000000E+00  0.00000000E+00  0.00000000E+00
  0.00000000E+00  0.00000000E+00  0.00000000E+00
  0.00000000E+00  0.00000000E+00  0.00000000E+00
  0.00000000E+00  0.00000000E+00  0.00000000E+00
  0.00000000E+00  0.00000000E+00  0.00000000E+00
  0.00000000E+00  0.00000000E+00  0.00000000E+00
  0.00000000E+00  0.00000000E+00  0.00000000E+00
  0.00000000E+00  0.00000000E+00  0.00000000E+00
  0.00000000E+00  0.00000000E+00  0.00000000E+00
  0.00000000E+00  0.00000000E+00  0.00000000E+00
