C N H                                   
   1.00000000000000     
    40.0000000000000000    0.0000000000000000    0.0000000000000000
     0.0000000000000000   40.0000000000000000    0.0000000000000000
     0.0000000000000000    0.0000000000000000   40.0000000000000000
   C    N    H 
     7     1     9
Selective dynamics
Direct
  0.4777628573024745  0.5308851944535031  0.5000991697634333   T   T   T
  0.5119420096762186  0.5304932011211131  0.4994926181025393   T   T   T
  0.5299653743677489  0.5000208939116763  0.4994793807086397   T   T   T
  0.5671470193830422  0.5000022643768174  0.4990106062857537   T   T   T
  0.5119526401108999  0.4695304105967862  0.4994900531174780   T   T   T
  0.4777746942413178  0.4691306661386196  0.5000955353978502   T   T   T
  0.4598302472453973  0.5000037617040169  0.5007258092671075   T   T   T
  0.4267098930333403  0.4999967336198820  0.5020321511868708   T   T   T
  0.5772505467708863  0.5225206618216214  0.5105889810906890   T   T   T
  0.5760745373159908  0.4994756556785877  0.4730809351711274   T   T   T
  0.5772103607957766  0.4779086822804989  0.5114263478131229   T   T   T
  0.4136501176964799  0.4783413276044555  0.5026929886272394   T   T   T
  0.4136429255446540  0.5216500268926779  0.5026957833347381   T   T   T
  0.4639331121379247  0.4458771484351432  0.5003089380066775   T   T   T
  0.5256299252164663  0.4461489873114470  0.4992300840706744   T   T   T
  0.5256114734739652  0.5538815347508915  0.4992339723672022   T   T   T
  0.4639122656874030  0.5541328493022691  0.5003166456888423   T   T   T
 
  0.00000000E+00  0.00000000E+00  0.00000000E+00
  0.00000000E+00  0.00000000E+00  0.00000000E+00
  0.00000000E+00  0.00000000E+00  0.00000000E+00
  0.00000000E+00  0.00000000E+00  0.00000000E+00
  0.00000000E+00  0.00000000E+00  0.00000000E+00
  0.00000000E+00  0.00000000E+00  0.00000000E+00
  0.00000000E+00  0.00000000E+00  0.00000000E+00
  0.00000000E+00  0.00000000E+00  0.00000000E+00
  0.00000000E+00  0.00000000E+00  0.00000000E+00
  0.00000000E+00  0.00000000E+00  0.00000000E+00
  0.00000000E+00  0.00000000E+00  0.00000000E+00
  0.00000000E+00  0.00000000E+00  0.00000000E+00
  0.00000000E+00  0.00000000E+00  0.00000000E+00
  0.00000000E+00  0.00000000E+00  0.00000000E+00
  0.00000000E+00  0.00000000E+00  0.00000000E+00
  0.00000000E+00  0.00000000E+00  0.00000000E+00
  0.00000000E+00  0.00000000E+00  0.00000000E+00
