C H                                     
   1.00000000000000     
    40.0000000000000000    0.0000000000000000    0.0000000000000000
     0.0000000000000000   40.0000000000000000    0.0000000000000000
     0.0000000000000000    0.0000000000000000   40.0000000000000000
   C    H 
    10    12
Selective dynamics
Direct
  0.4949766888262772  0.4743844829304180  0.5001089206143732   T   T   T
  0.4608680906240821  0.4703919865474333  0.5001802391526979   T   T   T
  0.4390599352920361  0.4985155718482233  0.5002643207018593   T   T   T
  0.4531609921332702  0.5310555263637298  0.5002127224173094   T   T   T
  0.4872848708007567  0.5353601286188265  0.5001014382609483   T   T   T
  0.5093339048799876  0.5072020986702483  0.5000696692036826   T   T   T
  0.5443347693062393  0.5134928265346517  0.5000223183067831   T   T   T
  0.5695417143874693  0.4898304284536650  0.5000186291518318   T   T   T
  0.6053099272104987  0.4982386135209822  0.4999586584087368   T   T   T
  0.4022550090976296  0.4936622996146127  0.5000193045644892   T   T   T
  0.6177158915889081  0.4866799894128988  0.5217542745612320   T   T   T
  0.6176541747249047  0.4866013513309042  0.4781707585559687   T   T   T
  0.6101015292892527  0.5251909341907179  0.4999026203757069   T   T   T
  0.5631079694622514  0.4632631770836326  0.5000767396237862   T   T   T
  0.5518681454557424  0.5397808001965672  0.4999721300107325   T   T   T
  0.4980375997440660  0.5604110756185747  0.5000875019240567   T   T   T
  0.4366285047620480  0.5527158552657667  0.5003061803091455   T   T   T
  0.3886261597161678  0.5168607595515340  0.5050128530225209   T   T   T
  0.3943312886602897  0.4842540127340982  0.4753029372585900   T   T   T
  0.3946674352347799  0.4743874558107777  0.5180973398203719   T   T   T
  0.4501125298195205  0.4453387309250516  0.5002564870753048   T   T   T
  0.5110228689838365  0.4523828947767043  0.5001049566798557   T   T   T
 
  0.00000000E+00  0.00000000E+00  0.00000000E+00
  0.00000000E+00  0.00000000E+00  0.00000000E+00
  0.00000000E+00  0.00000000E+00  0.00000000E+00
  0.00000000E+00  0.00000000E+00  0.00000000E+00
  0.00000000E+00  0.00000000E+00  0.00000000E+00
  0.00000000E+00  0.00000000E+00  0.00000000E+00
  0.00000000E+00  0.00000000E+00  0.00000000E+00
  0.00000000E+00  0.00000000E+00  0.00000000E+00
  0.00000000E+00  0.00000000E+00  0.00000000E+00
  0.00000000E+00  0.00000000E+00  0.00000000E+00
  0.00000000E+00  0.00000000E+00  0.00000000E+00
  0.00000000E+00  0.00000000E+00  0.00000000E+00
  0.00000000E+00  0.00000000E+00  0.00000000E+00
  0.00000000E+00  0.00000000E+00  0.00000000E+00
  0.00000000E+00  0.00000000E+00  0.00000000E+00
  0.00000000E+00  0.00000000E+00  0.00000000E+00
  0.00000000E+00  0.00000000E+00  0.00000000E+00
  0.00000000E+00  0.00000000E+00  0.00000000E+00
  0.00000000E+00  0.00000000E+00  0.00000000E+00
  0.00000000E+00  0.00000000E+00  0.00000000E+00
  0.00000000E+00  0.00000000E+00  0.00000000E+00
  0.00000000E+00  0.00000000E+00  0.00000000E+00
