C N O H                                 
   1.00000000000000     
    40.0000000000000000    0.0000000000000000    0.0000000000000000
     0.0000000000000000   40.0000000000000000    0.0000000000000000
     0.0000000000000000    0.0000000000000000   40.0000000000000000
   C    N    O    H 
     8     1     3     7
Selective dynamics
Direct
  0.5013109043585936  0.4635017574300159  0.4999839582398244   T   T   T
  0.4667267467151924  0.4634594172396096  0.5000036162106976   T   T   T
  0.4502364108883899  0.4940938368480746  0.5000382652297541   T   T   T
  0.4671030148894323  0.5244518476898908  0.5000533070204313   T   T   T
  0.5017922279921581  0.5240501740182832  0.5000281495880731   T   T   T
  0.5191223835441697  0.4936466452568340  0.4999963118784244   T   T   T
  0.5565670874419032  0.4921510718010927  0.4999601310509759   T   T   T
  0.5761114681556280  0.5241184876709839  0.4999403538727840   T   T   T
  0.4136378104889331  0.4943165533442046  0.5000538633818794   T   T   T
  0.5706524771129837  0.4648718358237001  0.4999505753219070   T   T   T
  0.3991929121954426  0.5216209965272685  0.5000600696868925   T   T   T
  0.3989098936571704  0.4671596872615781  0.5000542593579637   T   T   T
  0.5699719162527762  0.5391431049830643  0.5219239770952916   T   T   T
  0.6026791902620582  0.5183738245858149  0.4998794043751529   T   T   T
  0.5698743850416826  0.5391893757427624  0.4780174249148842   T   T   T
  0.5151127876013274  0.5476049012932841  0.5000285722489147   T   T   T
  0.4533174386915883  0.5476886710247115  0.5000786100246860   T   T   T
  0.4526634694425868  0.4403960771734821  0.4999951612680035   T   T   T
  0.5150164752679860  0.4401657342853486  0.4999529892334684   T   T   T
 
  0.00000000E+00  0.00000000E+00  0.00000000E+00
  0.00000000E+00  0.00000000E+00  0.00000000E+00
  0.00000000E+00  0.00000000E+00  0.00000000E+00
  0.00000000E+00  0.00000000E+00  0.00000000E+00
  0.00000000E+00  0.00000000E+00  0.00000000E+00
  0.00000000E+00  0.00000000E+00  0.00000000E+00
  0.00000000E+00  0.00000000E+00  0.00000000E+00
  0.00000000E+00  0.00000000E+00  0.00000000E+00
  0.00000000E+00  0.00000000E+00  0.00000000E+00
  0.00000000E+00  0.00000000E+00  0.00000000E+00
  0.00000000E+00  0.00000000E+00  0.00000000E+00
  0.00000000E+00  0.00000000E+00  0.00000000E+00
  0.00000000E+00  0.00000000E+00  0.00000000E+00
  0.00000000E+00  0.00000000E+00  0.00000000E+00
  0.00000000E+00  0.00000000E+00  0.00000000E+00
  0.00000000E+00  0.00000000E+00  0.00000000E+00
  0.00000000E+00  0.00000000E+00  0.00000000E+00
  0.00000000E+00  0.00000000E+00  0.00000000E+00
  0.00000000E+00  0.00000000E+00  0.00000000E+00
