C N O H                                 
   1.00000000000000     
    25.0000000000000000    0.0000000000000000    0.0000000000000000
     0.0000000000000000   25.0000000000000000    0.0000000000000000
     0.0000000000000000    0.0000000000000000   25.0000000000000000
   C    N    O    H 
    10     1     3    18
Selective dynamics
Direct
  0.5049457623347465  0.5431939426410693  0.4595129599180754   T   T   T
  0.5311680207037847  0.4888756362922077  0.4471157527374376   T   T   T
  0.5435120165884569  0.4559749668669805  0.4976438406962977   T   T   T
  0.4908192837351867  0.4450318862607669  0.5265959539022510   T   T   T
  0.4617687068885891  0.4963532866073576  0.5444470399860233   T   T   T
  0.5459980834223893  0.5835803925244236  0.4815801955908093   T   T   T
  0.4800396564347290  0.5652451645803640  0.4078977583643058   T   T   T
  0.4889511285304687  0.5219124374590147  0.5935744930623466   T   T   T
  0.4035412791710276  0.4824210300601022  0.5581629498395215   T   T   T
  0.5747153882060932  0.4064584955484508  0.4816517108353618   T   T   T
  0.4605998890300446  0.5364270408303370  0.4995861767716989   T   T   T
  0.4293363495281275  0.5770779664109471  0.5060582339955396   T   T   T
  0.6226981541096049  0.4071494915187019  0.4708810115533226   T   T   T
  0.5448024949851890  0.3616257239499307  0.4789170947631615   T   T   T
  0.5678839985481827  0.4966272331589678  0.4241986863907029   T   T   T
  0.5042571662489715  0.4653501489731335  0.4213355681211663   T   T   T
  0.5711273976345045  0.4787108596566081  0.5233218716573407   T   T   T
  0.4972328433331180  0.4202389461604545  0.5623397626168530   T   T   T
  0.4643725034185936  0.4222929177772967  0.4997566300035323   T   T   T
  0.5253977630063860  0.6201838260882466  0.4944225768311681   T   T   T
  0.5685180779859443  0.5675443466408675  0.5156735668414659   T   T   T
  0.5747224343650901  0.5939446264325260  0.4499650448260294   T   T   T
  0.4623204409837144  0.6047667373057471  0.4146717983191212   T   T   T
  0.4488132174433784  0.5381489924949900  0.3929685457519126   T   T   T
  0.5112516415190558  0.5688491362168456  0.3771877694536447   T   T   T
  0.4704123260414479  0.5607640289794265  0.6023301176640883   T   T   T
  0.5320007593253177  0.5279895141973820  0.5875720674257912   T   T   T
  0.4836594210537070  0.4956456023598506  0.6284245184050542   T   T   T
  0.3818784216268147  0.5176644995877866  0.5726903475933963   T   T   T
  0.3826874107273104  0.4665959177659376  0.5228455868581277   T   T   T
  0.4030955611665204  0.4516558389068126  0.5895321809675785   T   T   T
  0.5674714019034935  0.3316993657464669  0.4671401882568839   T   T   T
 
  0.00000000E+00  0.00000000E+00  0.00000000E+00
  0.00000000E+00  0.00000000E+00  0.00000000E+00
  0.00000000E+00  0.00000000E+00  0.00000000E+00
  0.00000000E+00  0.00000000E+00  0.00000000E+00
  0.00000000E+00  0.00000000E+00  0.00000000E+00
  0.00000000E+00  0.00000000E+00  0.00000000E+00
  0.00000000E+00  0.00000000E+00  0.00000000E+00
  0.00000000E+00  0.00000000E+00  0.00000000E+00
  0.00000000E+00  0.00000000E+00  0.00000000E+00
  0.00000000E+00  0.00000000E+00  0.00000000E+00
  0.00000000E+00  0.00000000E+00  0.00000000E+00
  0.00000000E+00  0.00000000E+00  0.00000000E+00
  0.00000000E+00  0.00000000E+00  0.00000000E+00
  0.00000000E+00  0.00000000E+00  0.00000000E+00
  0.00000000E+00  0.00000000E+00  0.00000000E+00
  0.00000000E+00  0.00000000E+00  0.00000000E+00
  0.00000000E+00  0.00000000E+00  0.00000000E+00
  0.00000000E+00  0.00000000E+00  0.00000000E+00
  0.00000000E+00  0.00000000E+00  0.00000000E+00
  0.00000000E+00  0.00000000E+00  0.00000000E+00
  0.00000000E+00  0.00000000E+00  0.00000000E+00
  0.00000000E+00  0.00000000E+00  0.00000000E+00
  0.00000000E+00  0.00000000E+00  0.00000000E+00
  0.00000000E+00  0.00000000E+00  0.00000000E+00
  0.00000000E+00  0.00000000E+00  0.00000000E+00
  0.00000000E+00  0.00000000E+00  0.00000000E+00
  0.00000000E+00  0.00000000E+00  0.00000000E+00
  0.00000000E+00  0.00000000E+00  0.00000000E+00
  0.00000000E+00  0.00000000E+00  0.00000000E+00
  0.00000000E+00  0.00000000E+00  0.00000000E+00
  0.00000000E+00  0.00000000E+00  0.00000000E+00
  0.00000000E+00  0.00000000E+00  0.00000000E+00
