C H                                     
   1.00000000000000     
    40.0000000000000000    0.0000000000000000    0.0000000000000000
     0.0000000000000000   40.0000000000000000    0.0000000000000000
     0.0000000000000000    0.0000000000000000   40.0000000000000000
   C    H 
    14    10
Selective dynamics
Direct
  0.6035513637248290  0.5302904058805034  0.5000048968064819   T   T   T
  0.6211057832843605  0.5000017744279659  0.4999966095495511   T   T   T
  0.6035519190187529  0.4697106274648533  0.4999904791180472   T   T   T
  0.5686994751744623  0.4695521015760128  0.4999930014596631   T   T   T
  0.5507699358174772  0.5000000897443075  0.5000007686665578   T   T   T
  0.5686971268106877  0.5304479964617465  0.5000075870303196   T   T   T
  0.5152807874591666  0.4999973998336766  0.5000060696354559   T   T   T
  0.4847193339803626  0.4999958715752478  0.5000085372561716   T   T   T
  0.4492295744161741  0.4999997535710304  0.5000042094954705   T   T   T
  0.4312999274975998  0.4695507442774219  0.5000106164423774   T   T   T
  0.3964487006410579  0.4697096018543809  0.5000061959515623   T   T   T
  0.3788939810208658  0.5000010703315947  0.4999969634712702   T   T   T
  0.3964492580149555  0.5302893026003731  0.4999920015563884   T   T   T
  0.4313032051490291  0.5304465379537074  0.4999958172557297   T   T   T
  0.5549388673145522  0.5539845713546673  0.5000118242769371   T   T   T
  0.4450615081158538  0.5539829882681694  0.4999928923815496   T   T   T
  0.3828796920665447  0.5539523258417484  0.4999859106004765   T   T   T
  0.3516142052339585  0.5000029845975493  0.4999941273596308   T   T   T
  0.3828741572909525  0.4460507846676367  0.5000080331648283   T   T   T
  0.4450565088418554  0.4460123340804639  0.5000150027198655   T   T   T
  0.5549426929932104  0.4460139243944286  0.4999905164385404   T   T   T
  0.6171247279024765  0.4460510966498952  0.4999857470305423   T   T   T
  0.6483855777745049  0.5000030045376609  0.4999952442372625   T   T   T
  0.6171206904563199  0.5539527080549662  0.5000079480953243   T   T   T
 
  0.00000000E+00  0.00000000E+00  0.00000000E+00
  0.00000000E+00  0.00000000E+00  0.00000000E+00
  0.00000000E+00  0.00000000E+00  0.00000000E+00
  0.00000000E+00  0.00000000E+00  0.00000000E+00
  0.00000000E+00  0.00000000E+00  0.00000000E+00
  0.00000000E+00  0.00000000E+00  0.00000000E+00
  0.00000000E+00  0.00000000E+00  0.00000000E+00
  0.00000000E+00  0.00000000E+00  0.00000000E+00
  0.00000000E+00  0.00000000E+00  0.00000000E+00
  0.00000000E+00  0.00000000E+00  0.00000000E+00
  0.00000000E+00  0.00000000E+00  0.00000000E+00
  0.00000000E+00  0.00000000E+00  0.00000000E+00
  0.00000000E+00  0.00000000E+00  0.00000000E+00
  0.00000000E+00  0.00000000E+00  0.00000000E+00
  0.00000000E+00  0.00000000E+00  0.00000000E+00
  0.00000000E+00  0.00000000E+00  0.00000000E+00
  0.00000000E+00  0.00000000E+00  0.00000000E+00
  0.00000000E+00  0.00000000E+00  0.00000000E+00
  0.00000000E+00  0.00000000E+00  0.00000000E+00
  0.00000000E+00  0.00000000E+00  0.00000000E+00
  0.00000000E+00  0.00000000E+00  0.00000000E+00
  0.00000000E+00  0.00000000E+00  0.00000000E+00
  0.00000000E+00  0.00000000E+00  0.00000000E+00
  0.00000000E+00  0.00000000E+00  0.00000000E+00
