C N H                                   
   1.00000000000000     
    40.0000000000000000    0.0000000000000000    0.0000000000000000
     0.0000000000000000   40.0000000000000000    0.0000000000000000
     0.0000000000000000    0.0000000000000000   40.0000000000000000
   C    N    H 
     6     1     7
Selective dynamics
Direct
  0.4949958091603694  0.4688999696707746  0.4999903637464851   T   T   T
  0.5293573212612326  0.4692630889918900  0.5010000210195829   T   T   T
  0.5467937872696608  0.4999990000000025  0.5013928836206756   T   T   T
  0.5293573212612326  0.5307359110081054  0.5010000210195829   T   T   T
  0.4949968091603669  0.5311000303292254  0.4999903637464851   T   T   T
  0.4771563101695341  0.5000000000000000  0.4993512359363451   T   T   T
  0.4437880595381021  0.5000009999999975  0.4981186554439583   T   T   T
  0.4304874939596141  0.5216743525228945  0.4975829660534140   T   T   T
  0.4304864939596166  0.4783276474771074  0.4975829660534140   T   T   T
  0.4810490626599952  0.5545082475744683  0.4996030047064394   T   T   T
  0.5432296257653911  0.5541496556710506  0.5014210759327012   T   T   T
  0.5740252174094719  0.4999990000000025  0.5019433620817667   T   T   T
  0.5432286257653937  0.4458493443289380  0.5014210759327012   T   T   T
  0.4810470626600002  0.4454917524255319  0.4996030047064394   T   T   T
 
  0.00000000E+00  0.00000000E+00  0.00000000E+00
  0.00000000E+00  0.00000000E+00  0.00000000E+00
  0.00000000E+00  0.00000000E+00  0.00000000E+00
  0.00000000E+00  0.00000000E+00  0.00000000E+00
  0.00000000E+00  0.00000000E+00  0.00000000E+00
  0.00000000E+00  0.00000000E+00  0.00000000E+00
  0.00000000E+00  0.00000000E+00  0.00000000E+00
  0.00000000E+00  0.00000000E+00  0.00000000E+00
  0.00000000E+00  0.00000000E+00  0.00000000E+00
  0.00000000E+00  0.00000000E+00  0.00000000E+00
  0.00000000E+00  0.00000000E+00  0.00000000E+00
  0.00000000E+00  0.00000000E+00  0.00000000E+00
  0.00000000E+00  0.00000000E+00  0.00000000E+00
  0.00000000E+00  0.00000000E+00  0.00000000E+00
