C O H                                   
   1.00000000000000     
    40.0000000000000000    0.0000000000000000    0.0000000000000000
     0.0000000000000000   40.0000000000000000    0.0000000000000000
     0.0000000000000000    0.0000000000000000   40.0000000000000000
   C    O    H 
    10     1    12
Selective dynamics
Direct
  0.4857595707733885  0.5200772324830716  0.4999957248780145   T   T   T
  0.4533342515874422  0.5066749599306958  0.4999988878098724   T   T   T
  0.4487220735248076  0.4719372693766666  0.5000015721657061   T   T   T
  0.4770757344378962  0.4512539532585099  0.5000004083236870   T   T   T
  0.5092639341780536  0.4643980817579204  0.4999990506212793   T   T   T
  0.5141057610143872  0.4994151402074928  0.4999960711117661   T   T   T
  0.5471818652570168  0.5153487838326538  0.4999943775924973   T   T   T
  0.5771514881148337  0.5000301909813828  0.5000031879630362   T   T   T
  0.6100033483710794  0.5178439682119024  0.5000001533739974   T   T   T
  0.3942069282300245  0.5173015999706433  0.5000037126740416   T   T   T
  0.4279062416747874  0.5296911257352415  0.4999995808941129   T   T   T
  0.6250401576364664  0.5108390239914548  0.4779839431494796   T   T   T
  0.6250362755512501  0.5108532083200324  0.5220234178981498   T   T   T
  0.6068144659677449  0.5451308428823450  0.4999908299254510   T   T   T
  0.5783635716996843  0.4726782321129699  0.5000116046751010   T   T   T
  0.5467800156569294  0.5427582822172630  0.4999863196341611   T   T   T
  0.5306515395674793  0.4475002628832873  0.4999979916292676   T   T   T
  0.4735982233002820  0.4241871549239724  0.5000020902349320   T   T   T
  0.4238771988210255  0.4608630928410789  0.5000028858308579   T   T   T
  0.3781628737619961  0.5394803289785426  0.5000037720773798   T   T   T
  0.3891591374462582  0.5022589557139809  0.5225040187128147   T   T   T
  0.3891547762212706  0.5022561933130565  0.4775057903438365   T   T   T
  0.4886505672059098  0.5472221160758071  0.4999946084805367   T   T   T
 
  0.00000000E+00  0.00000000E+00  0.00000000E+00
  0.00000000E+00  0.00000000E+00  0.00000000E+00
  0.00000000E+00  0.00000000E+00  0.00000000E+00
  0.00000000E+00  0.00000000E+00  0.00000000E+00
  0.00000000E+00  0.00000000E+00  0.00000000E+00
  0.00000000E+00  0.00000000E+00  0.00000000E+00
  0.00000000E+00  0.00000000E+00  0.00000000E+00
  0.00000000E+00  0.00000000E+00  0.00000000E+00
  0.00000000E+00  0.00000000E+00  0.00000000E+00
  0.00000000E+00  0.00000000E+00  0.00000000E+00
  0.00000000E+00  0.00000000E+00  0.00000000E+00
  0.00000000E+00  0.00000000E+00  0.00000000E+00
  0.00000000E+00  0.00000000E+00  0.00000000E+00
  0.00000000E+00  0.00000000E+00  0.00000000E+00
  0.00000000E+00  0.00000000E+00  0.00000000E+00
  0.00000000E+00  0.00000000E+00  0.00000000E+00
  0.00000000E+00  0.00000000E+00  0.00000000E+00
  0.00000000E+00  0.00000000E+00  0.00000000E+00
  0.00000000E+00  0.00000000E+00  0.00000000E+00
  0.00000000E+00  0.00000000E+00  0.00000000E+00
  0.00000000E+00  0.00000000E+00  0.00000000E+00
  0.00000000E+00  0.00000000E+00  0.00000000E+00
  0.00000000E+00  0.00000000E+00  0.00000000E+00
