C N H                                   
   1.00000000000000     
    40.0000000000000000    0.0000000000000000    0.0000000000000000
     0.0000000000000000   40.0000000000000000    0.0000000000000000
     0.0000000000000000    0.0000000000000000   40.0000000000000000
   C    N    H 
     6     1     7
Selective dynamics
Direct
  0.4949900194281297  0.4690984277621822  0.4999722195427161   T   T   T
  0.5291584561200761  0.4694861440936824  0.5009832063587560   T   T   T
  0.5465143399774512  0.4999990000000025  0.5013996318881173   T   T   T
  0.5291584561200761  0.5305128559063128  0.5009832063587560   T   T   T
  0.4949910194281272  0.5309015722378178  0.4999722195427161   T   T   T
  0.4771343813550172  0.5000000000000000  0.4993343452633640   T   T   T
  0.4441634781935750  0.5000009999999975  0.4981297350660133   T   T   T
  0.4310607971564377  0.5216459396270828  0.4976122439223816   T   T   T
  0.4310597971564402  0.4783560603729191  0.4976122439223816   T   T   T
  0.4811428734673677  0.5541345716033778  0.4995971347834168   T   T   T
  0.5429547953811276  0.5537780140678589  0.5014060265688549   T   T   T
  0.5735759173676533  0.4999990000000025  0.5019956254302457   T   T   T
  0.5429537953811301  0.4462209859321293  0.5014060265688549   T   T   T
  0.4811408734673727  0.4458654283966220  0.4995971347834168   T   T   T
 
  0.00000000E+00  0.00000000E+00  0.00000000E+00
  0.00000000E+00  0.00000000E+00  0.00000000E+00
  0.00000000E+00  0.00000000E+00  0.00000000E+00
  0.00000000E+00  0.00000000E+00  0.00000000E+00
  0.00000000E+00  0.00000000E+00  0.00000000E+00
  0.00000000E+00  0.00000000E+00  0.00000000E+00
  0.00000000E+00  0.00000000E+00  0.00000000E+00
  0.00000000E+00  0.00000000E+00  0.00000000E+00
  0.00000000E+00  0.00000000E+00  0.00000000E+00
  0.00000000E+00  0.00000000E+00  0.00000000E+00
  0.00000000E+00  0.00000000E+00  0.00000000E+00
  0.00000000E+00  0.00000000E+00  0.00000000E+00
  0.00000000E+00  0.00000000E+00  0.00000000E+00
  0.00000000E+00  0.00000000E+00  0.00000000E+00
