!PBE0 def2-SV(p) Opt Freq d3 TightSCF SlowConv RIJCOSX defgrid2
 
%pal
nprocs 4
end
 
%scf
MaxIter 1500
end
 
%maxcore 3000
 

 
* xyz 0 1
C     1.1141997   -1.2761990    0.1047408 
C     0.4022086    0.0533911    0.0632399 
C     1.0783741    1.2018040   -0.0575120 
C     2.5753482    1.2950669   -0.1255326 
C     3.2174547   -0.0536352   -0.4313275 
C     2.5896166   -1.1178235    0.4587270 
H     3.1021987   -2.0747154    0.3358588 
H     2.6846612   -0.8133597    1.5030689 
H     4.2962831   -0.0023107   -0.2675411 
H     3.0465468   -0.3135177   -1.4784837 
H     2.8590992    2.0266794   -0.8891296 
H     2.9615651    1.6716703    0.8311143 
H     0.5625966    2.1498473   -0.0708760 
N    -0.9694835   -0.0069630    0.2061237 
C    -1.7888453    1.1851434    0.1571240 
C    -3.2133589    0.6537972    0.2763287 
C    -3.1315737   -0.6543362   -0.5052152 
C    -1.7485258   -1.1882818   -0.1260922 
H    -1.2994701   -1.7579156   -0.9449108 
H    -1.8199710   -1.8478191    0.7498457 
H    -3.9268728   -1.3520383   -0.2516038 
H    -3.1731580   -0.4488903   -1.5756560 
H    -3.9500054    1.3453328   -0.1266909 
H    -3.4494092    0.4518927    1.3213067 
H    -1.5210850    1.8597401    0.9750231 
H    -1.6554703    1.7256571   -0.7934460 
H     0.6273895   -1.9255939    0.8351585 
H     1.0331754   -1.7611069   -0.8742790
*
