C H                                     
   1.00000000000000     
    40.0000000000000000    0.0000000000000000    0.0000000000000000
     0.0000000000000000   40.0000000000000000    0.0000000000000000
     0.0000000000000000    0.0000000000000000   40.0000000000000000
   C    H 
     6     6
Selective dynamics
Direct
  0.4683807850967213  0.5163623248479540  0.5000000000000000   T   T   T
  0.4991395069614663  0.5346348634766197  0.5000000000000000   T   T   T
  0.5307661207419347  0.5179480102091564  0.5000000000000000   T   T   T
  0.5316192149032788  0.4836376751520460  0.5000000000000000   T   T   T
  0.5008604930385336  0.4653651365233802  0.5000000000000000   T   T   T
  0.4692338792580651  0.4820519897908438  0.5000000000000000   T   T   T
  0.4463417875862826  0.4673330346000650  0.5000000000000000   T   T   T
  0.5015543540031363  0.4381323702676129  0.5000000000000000   T   T   T
  0.5552184505850454  0.4700776350290589  0.4999990000000025   T   T   T
  0.5536582124137241  0.5326669653999350  0.5000000000000000   T   T   T
  0.4984456459968707  0.5618676297323869  0.5000000000000000   T   T   T
  0.4447815494149545  0.5299223649709479  0.5000000000000000   T   T   T
 
  0.00000000E+00  0.00000000E+00  0.00000000E+00
  0.00000000E+00  0.00000000E+00  0.00000000E+00
  0.00000000E+00  0.00000000E+00  0.00000000E+00
  0.00000000E+00  0.00000000E+00  0.00000000E+00
  0.00000000E+00  0.00000000E+00  0.00000000E+00
  0.00000000E+00  0.00000000E+00  0.00000000E+00
  0.00000000E+00  0.00000000E+00  0.00000000E+00
  0.00000000E+00  0.00000000E+00  0.00000000E+00
  0.00000000E+00  0.00000000E+00  0.00000000E+00
  0.00000000E+00  0.00000000E+00  0.00000000E+00
  0.00000000E+00  0.00000000E+00  0.00000000E+00
  0.00000000E+00  0.00000000E+00  0.00000000E+00
