C F O H                                 
   1.00000000000000     
    40.0000000000000000    0.0000000000000000    0.0000000000000000
     0.0000000000000000   40.0000000000000000    0.0000000000000000
     0.0000000000000000    0.0000000000000000   40.0000000000000000
   C    F    O    H 
     8     1     1     7
Selective dynamics
Direct
  0.5100898661391932  0.5234269399824901  0.5000045599776167   T   T   T
  0.5448656929479564  0.5240415571920490  0.5000100832576170   T   T   T
  0.5623137114004260  0.4937053812335299  0.5000062665471263   T   T   T
  0.5458623995904958  0.4628356142878705  0.5000014867893570   T   T   T
  0.5111490755586342  0.4623000825725893  0.4999977921889779   T   T   T
  0.4916344286726487  0.4925583401147122  0.4999991365407807   T   T   T
  0.4557555096466011  0.4910456263592554  0.4999949273367935   T   T   T
  0.4359908995572460  0.5235659121222318  0.4999957605475769   T   T   T
  0.5972118238040333  0.4942860718382107  0.5000060512783052   T   T   T
  0.4395862685344364  0.4630360714110614  0.4999917450012275   T   T   T
  0.4413925698612647  0.5392207085591403  0.5221014118582143   T   T   T
  0.4413998456218323  0.5392257961613415  0.4778929777678759   T   T   T
  0.4091876521560350  0.5176753112868389  0.4999893814314007   T   T   T
  0.4978499272165493  0.4384970419735255  0.4999949944776094   T   T   T
  0.5603788976628793  0.4397134002349197  0.5000008717958244   T   T   T
  0.5585775279709464  0.5476422559268623  0.5000107345598201   T   T   T
  0.4967539036588289  0.5472238887433859  0.5000028186438883   T   T   T
 
  0.00000000E+00  0.00000000E+00  0.00000000E+00
  0.00000000E+00  0.00000000E+00  0.00000000E+00
  0.00000000E+00  0.00000000E+00  0.00000000E+00
  0.00000000E+00  0.00000000E+00  0.00000000E+00
  0.00000000E+00  0.00000000E+00  0.00000000E+00
  0.00000000E+00  0.00000000E+00  0.00000000E+00
  0.00000000E+00  0.00000000E+00  0.00000000E+00
  0.00000000E+00  0.00000000E+00  0.00000000E+00
  0.00000000E+00  0.00000000E+00  0.00000000E+00
  0.00000000E+00  0.00000000E+00  0.00000000E+00
  0.00000000E+00  0.00000000E+00  0.00000000E+00
  0.00000000E+00  0.00000000E+00  0.00000000E+00
  0.00000000E+00  0.00000000E+00  0.00000000E+00
  0.00000000E+00  0.00000000E+00  0.00000000E+00
  0.00000000E+00  0.00000000E+00  0.00000000E+00
  0.00000000E+00  0.00000000E+00  0.00000000E+00
  0.00000000E+00  0.00000000E+00  0.00000000E+00
