C N O H                                 
   1.00000000000000     
    40.0000000000000000    0.0000000000000000    0.0000000000000000
     0.0000000000000000   40.0000000000000000    0.0000000000000000
     0.0000000000000000    0.0000000000000000   40.0000000000000000
   C    N    O    H 
    10     1     1    17
Selective dynamics
Direct
  0.4705191521606127  0.4688439935943405  0.5004769975093915   T   T   T
  0.4904665387149439  0.4999118189139739  0.5083828782664596   T   T   T
  0.4747737123812796  0.5311723084477249  0.5086065587239920   T   T   T
  0.4393081478949447  0.5364440339690564  0.4992133459641175   T   T   T
  0.4221177348467561  0.5057780372168317  0.4842157228923960   T   T   T
  0.4327024277835514  0.4744544606616511  0.5032847324129358   T   T   T
  0.5461795607907832  0.5243899604912248  0.5231622050796623   T   T   T
  0.5703658590375469  0.5298745405710663  0.4937343413091481   T   T   T
  0.5666927931958985  0.4730137373228872  0.4792408040710101   T   T   T
  0.5423980670011557  0.4661774157472166  0.5084850657681897   T   T   T
  0.5235344763945839  0.4968047914270273  0.5150458648184691   T   T   T
  0.5886811648941571  0.5000259451259349  0.4868405240395952   T   T   T
  0.4257034427841037  0.4769362921930410  0.5298254207250757   T   T   T
  0.4198165750563234  0.4521969834291522  0.4936502254801160   T   T   T
  0.4291851562137909  0.5032432395740827  0.4577130023397628   T   T   T
  0.3948724540321625  0.5090902354958506  0.4849772701593527   T   T   T
  0.4259998884396383  0.5448153043458407  0.5220824592249405   T   T   T
  0.4379597916509066  0.5583416499452429  0.4824580140720218   T   T   T
  0.4887041290973614  0.5534586384390371  0.5156442941103049   T   T   T
  0.5327305070979589  0.5474115588102961  0.5288910297856370   T   T   T
  0.5886156688239484  0.5491955618520380  0.5004174339488577   T   T   T
  0.5561794777342527  0.5379000639416269  0.4714373672986196   T   T   T
  0.5521397481962370  0.4785502761190442  0.4564376452654010   T   T   T
  0.5567182335517575  0.4598043348777259  0.5310347088217995   T   T   T
  0.5259674220394733  0.4453729530708985  0.5020483579049617   T   T   T
  0.5822324991505551  0.4508340070036135  0.4750373940687831   T   T   T
  0.5605101716458420  0.5168694432528522  0.5453481210928293   T   T   T
  0.4767499549960889  0.4605291065106318  0.4749369691734107   T   T   T
  0.4781772443933724  0.4485603076501009  0.5173742456727727   T   T   T
 
  0.00000000E+00  0.00000000E+00  0.00000000E+00
  0.00000000E+00  0.00000000E+00  0.00000000E+00
  0.00000000E+00  0.00000000E+00  0.00000000E+00
  0.00000000E+00  0.00000000E+00  0.00000000E+00
  0.00000000E+00  0.00000000E+00  0.00000000E+00
  0.00000000E+00  0.00000000E+00  0.00000000E+00
  0.00000000E+00  0.00000000E+00  0.00000000E+00
  0.00000000E+00  0.00000000E+00  0.00000000E+00
  0.00000000E+00  0.00000000E+00  0.00000000E+00
  0.00000000E+00  0.00000000E+00  0.00000000E+00
  0.00000000E+00  0.00000000E+00  0.00000000E+00
  0.00000000E+00  0.00000000E+00  0.00000000E+00
  0.00000000E+00  0.00000000E+00  0.00000000E+00
  0.00000000E+00  0.00000000E+00  0.00000000E+00
  0.00000000E+00  0.00000000E+00  0.00000000E+00
  0.00000000E+00  0.00000000E+00  0.00000000E+00
  0.00000000E+00  0.00000000E+00  0.00000000E+00
  0.00000000E+00  0.00000000E+00  0.00000000E+00
  0.00000000E+00  0.00000000E+00  0.00000000E+00
  0.00000000E+00  0.00000000E+00  0.00000000E+00
  0.00000000E+00  0.00000000E+00  0.00000000E+00
  0.00000000E+00  0.00000000E+00  0.00000000E+00
  0.00000000E+00  0.00000000E+00  0.00000000E+00
  0.00000000E+00  0.00000000E+00  0.00000000E+00
  0.00000000E+00  0.00000000E+00  0.00000000E+00
  0.00000000E+00  0.00000000E+00  0.00000000E+00
  0.00000000E+00  0.00000000E+00  0.00000000E+00
  0.00000000E+00  0.00000000E+00  0.00000000E+00
  0.00000000E+00  0.00000000E+00  0.00000000E+00
