!TPSSh aug-cc-pVTZ d3 TightSCF SlowConv RIJCOSX defgrid2
 
%pal
nprocs 4
end
 
%scf
MaxIter 1500
end
 
%maxcore 3000
 
!CPCM
%cpcm smd true
SMDsolvent "MeCN"
surfacetype gepol_ses
rsolv 2.19
end 
 
* xyz 0 1
C           1.36094883267894     -0.66831836744035      0.79166505304401
C           2.61668489634387     -1.26993624441883      0.83762450630671
C           3.69751463551123     -0.71498852855237      0.15220113395429
C           3.51411500210824      0.45521897470958     -0.58452696169930
C           2.26200602044100      1.06208181225052     -0.64510108123094
C           1.18681200151517      0.49836983896063      0.04263488062587
O          -0.00001482572359      1.16979071588351      0.00005454238981
C          -1.18682038085230      0.49834069380338     -0.04260530375666
C          -2.26210069770780      1.06211241497205      0.64495038697290
C          -3.51419441314783      0.45522857582203      0.58430306316011
C          -3.69749941395526     -0.71506183581738     -0.15231803955518
C          -2.61658550079969     -1.27006941979564     -0.83755825340367
C          -1.36085917884001     -0.66843361449673     -0.79152524362506
H          -0.51558365320611     -1.09715909206061     -1.33585483016717
H          -2.75062021450227     -2.18281812892327     -1.42596293506599
H          -4.68044516686291     -1.19217947086648     -0.19470697547587
H          -4.35472302990288      0.90118829684160      1.12448028512422
H          -2.09557313650778      1.97752399950586      1.21789909020225
H           2.09540249638844      1.97742680661202     -1.21813253528145
H           4.35457955862348      0.90113009122578     -1.12484535245104
H           4.68047118965145     -1.19208889118135      0.19453111833043
H           2.75079772312689     -2.18261728806241      1.42611640363857
H           0.51573555561975     -1.09698553897151      1.33613674796315
*
