C N O H                                 
   1.00000000000000     
    40.0000000000000000    0.0000000000000000    0.0000000000000000
     0.0000000000000000   40.0000000000000000    0.0000000000000000
     0.0000000000000000    0.0000000000000000   40.0000000000000000
   C    N    O    H 
     7     1     1     7
Selective dynamics
Direct
  0.5159045608249636  0.4685069217926996  0.5000000000000000   T   T   T
  0.5503083143372467  0.4745196872467532  0.5000000000000000   T   T   T
  0.5623494224122493  0.5073309951532113  0.5000000000000000   T   T   T
  0.5397347474555299  0.5341461527101755  0.5000000000000000   T   T   T
  0.5054189219118901  0.5282734278017819  0.5000000000000000   T   T   T
  0.4930272009580105  0.4952576186154267  0.5000000000000000   T   T   T
  0.4572834867606043  0.4875754359894216  0.5000000000000000   T   T   T
  0.4350150417734869  0.5108820321228454  0.5000000000000000   T   T   T
  0.4024893303636528  0.4975257590642129  0.5000009999999975   T   T   T
  0.3883015650137833  0.5173984346781583  0.5000009999999975   T   T   T
  0.4497542441593942  0.4611546154034457  0.5000000000000000   T   T   T
  0.4879074327174030  0.5491665153639592  0.5000000000000000   T   T   T
  0.5490480397129052  0.5597882089887765  0.5000000000000000   T   T   T
  0.5892103230490930  0.5120902564033234  0.4999990000000025   T   T   T
  0.5677192509152814  0.4535232430930533  0.4999990000000025   T   T   T
  0.5065291176345033  0.4428606955727486  0.5000000000000000   T   T   T
 
  0.00000000E+00  0.00000000E+00  0.00000000E+00
  0.00000000E+00  0.00000000E+00  0.00000000E+00
  0.00000000E+00  0.00000000E+00  0.00000000E+00
  0.00000000E+00  0.00000000E+00  0.00000000E+00
  0.00000000E+00  0.00000000E+00  0.00000000E+00
  0.00000000E+00  0.00000000E+00  0.00000000E+00
  0.00000000E+00  0.00000000E+00  0.00000000E+00
  0.00000000E+00  0.00000000E+00  0.00000000E+00
  0.00000000E+00  0.00000000E+00  0.00000000E+00
  0.00000000E+00  0.00000000E+00  0.00000000E+00
  0.00000000E+00  0.00000000E+00  0.00000000E+00
  0.00000000E+00  0.00000000E+00  0.00000000E+00
  0.00000000E+00  0.00000000E+00  0.00000000E+00
  0.00000000E+00  0.00000000E+00  0.00000000E+00
  0.00000000E+00  0.00000000E+00  0.00000000E+00
  0.00000000E+00  0.00000000E+00  0.00000000E+00
