C N H                                   
   1.00000000000000     
    40.0000000000000000    0.0000000000000000    0.0000000000000000
     0.0000000000000000   40.0000000000000000    0.0000000000000000
     0.0000000000000000    0.0000000000000000   40.0000000000000000
   C    N    H 
    10     1    17
Selective dynamics
Direct
  0.5274144939202472  0.4689596178968785  0.5015044087645890   T   T   T
  0.5096586925960054  0.5024081811258228  0.5009983924361521   T   T   T
  0.5269484672162505  0.5317500352450821  0.5002374474100719   T   T   T
  0.5645436812043627  0.5338334327950633  0.4995428887796720   T   T   T
  0.5808627767343566  0.5003841433484837  0.4905991994589343   T   T   T
  0.5645020215971002  0.4720913326426626  0.5104076289569832   T   T   T
  0.4546273373414564  0.5310003387798758  0.5020790143783813   T   T   T
  0.4189932752694361  0.5176906424038563  0.5065407772667783   T   T   T
  0.4204438962953887  0.4833727828951950  0.4894860218644368   T   T   T
  0.4551973763108919  0.4704605744625354  0.4991766743121033   T   T   T
  0.4751745914804175  0.5010018481836624  0.5014690547988323   T   T   T
  0.5771857656394417  0.4481131093755124  0.5057857079975250   T   T   T
  0.5669753476027282  0.4773244827852352  0.5373757882356429   T   T   T
  0.6079423376298365  0.5012831994162497  0.4954023986285350   T   T   T
  0.5776246262409614  0.4954891811814690  0.4636415481220482   T   T   T
  0.5725256713010864  0.5531881371566314  0.4815798919192957   T   T   T
  0.5743071073542723  0.5423155061913718  0.5240533692134903   T   T   T
  0.5133189048910438  0.5553672216669625  0.5002258172850631   T   T   T
  0.4652982996990715  0.4530169093263154  0.4804718712706659   T   T   T
  0.4542387246172623  0.4569698745740070  0.5233555705409643   T   T   T
  0.4003467579462807  0.4663903239910638  0.4972786012379515   T   T   T
  0.4189557469329230  0.4863550985088523  0.4621706451412635   T   T   T
  0.4000679026310863  0.5344276847162988  0.4958584015820264   T   T   T
  0.4134376670859012  0.5146718470336253  0.5333235643754151   T   T   T
  0.4623201055622488  0.5477076659178834  0.5226516537699908   T   T   T
  0.4574024945721078  0.5454187567280258  0.4785618260804085   T   T   T
  0.5149320447254411  0.4521642983728569  0.5194024781371311   T   T   T
  0.5247538856024150  0.4568457732785518  0.4768203580356740   T   T   T
 
  0.00000000E+00  0.00000000E+00  0.00000000E+00
  0.00000000E+00  0.00000000E+00  0.00000000E+00
  0.00000000E+00  0.00000000E+00  0.00000000E+00
  0.00000000E+00  0.00000000E+00  0.00000000E+00
  0.00000000E+00  0.00000000E+00  0.00000000E+00
  0.00000000E+00  0.00000000E+00  0.00000000E+00
  0.00000000E+00  0.00000000E+00  0.00000000E+00
  0.00000000E+00  0.00000000E+00  0.00000000E+00
  0.00000000E+00  0.00000000E+00  0.00000000E+00
  0.00000000E+00  0.00000000E+00  0.00000000E+00
  0.00000000E+00  0.00000000E+00  0.00000000E+00
  0.00000000E+00  0.00000000E+00  0.00000000E+00
  0.00000000E+00  0.00000000E+00  0.00000000E+00
  0.00000000E+00  0.00000000E+00  0.00000000E+00
  0.00000000E+00  0.00000000E+00  0.00000000E+00
  0.00000000E+00  0.00000000E+00  0.00000000E+00
  0.00000000E+00  0.00000000E+00  0.00000000E+00
  0.00000000E+00  0.00000000E+00  0.00000000E+00
  0.00000000E+00  0.00000000E+00  0.00000000E+00
  0.00000000E+00  0.00000000E+00  0.00000000E+00
  0.00000000E+00  0.00000000E+00  0.00000000E+00
  0.00000000E+00  0.00000000E+00  0.00000000E+00
  0.00000000E+00  0.00000000E+00  0.00000000E+00
  0.00000000E+00  0.00000000E+00  0.00000000E+00
  0.00000000E+00  0.00000000E+00  0.00000000E+00
  0.00000000E+00  0.00000000E+00  0.00000000E+00
  0.00000000E+00  0.00000000E+00  0.00000000E+00
  0.00000000E+00  0.00000000E+00  0.00000000E+00
