!PBE0 def2-SV(p) Opt Freq d3 TightSCF SlowConv RIJCOSX defgrid2
 
%pal
nprocs 4
end
 
%scf
MaxIter 1500
end
 
%maxcore 3000
 

 
* xyz 0 1
C     0.4374740   -0.5560350   -0.1280729 
C     1.5094635   -1.4312305    0.0474751 
C     2.8051425   -0.9705553    0.1769128 
C     3.0602183    0.3904340    0.1101314 
C     2.0123488    1.2719064   -0.0676413 
C     0.6934723    0.8270424   -0.1661222 
C    -0.3582373    1.8353560   -0.2800543 
C    -1.5644325    1.7723725    0.2768041 
C    -2.5973534    2.8429145    0.1707590 
H    -3.5108715    2.4396718   -0.2663072 
H    -2.8491590    3.2201637    1.1618739 
H    -2.2466390    3.6690526   -0.4431364 
H    -1.8434047    0.9122418    0.8704413 
H    -0.0750109    2.7326647   -0.8192865 
H     2.2085513    2.3344856   -0.1135251 
H     4.0721419    0.7600323    0.1925749 
H     3.6173233   -1.6702168    0.3124059 
H     1.3180796   -2.4944070    0.0570533 
C    -0.9061740   -1.0864854   -0.3485542 
C    -1.4028128   -2.1830555    0.2157853 
C    -2.7687825   -2.7206048   -0.0501067 
H    -3.2939359   -2.1084633   -0.7793430 
H    -2.7039493   -3.7413905   -0.4269695 
H    -3.3493060   -2.7491545    0.8721834 
H    -0.8162253   -2.7390112    0.9360844 
H    -1.5221774   -0.5182687   -1.0350276
*
