!TPSSh freq aug-cc-pVTZ d3 TightSCF SlowConv RIJCOSX defgrid2

%pal
nprocs 12
end

%scf
MaxIter 1500
end

%maxcore 5000

!CPCM
%cpcm smd true
SMDsolvent "MeCN"
surfacetype gepol_ses
rsolv 2.19
end 

* xyz 1 2
C           0.95437095764020     -1.31582472249336      0.00165412462451
C           2.30010969122736     -1.05177268913811     -0.00193726067692
C           2.74571914237987      0.28356917227366     -0.00234586979293
C           1.83960134946847      1.35958580434250      0.00078656664261
C           0.49184662959872      1.11372503596553      0.00347670715206
C           0.02460823041418     -0.23765714865699      0.00365448902891
C          -1.35128891704358     -0.54873882398539      0.00341420238094
N          -2.23028437244169      0.43782500092567     -0.00051117768247
O          -3.47901195969589     -0.05165624451676     -0.00589381988280
H          -4.06004524686668      0.73766205379140     -0.00669625617877
H          -1.68666917872831     -1.58221252263913      0.00458940201620
H          -0.22525214345844      1.92228848446653      0.00593742078958
H           2.21248204087021      2.37451322817859      0.00050650564766
H           3.80922813947845      0.48578341401483     -0.00508888428615
H           3.02045310929946     -1.85804066880039     -0.00427636329760
H           0.58182542785765     -2.33167337372859      0.00292081351516
*
