C H                                     
   1.00000000000000     
    40.0000000000000000    0.0000000000000000    0.0000000000000000
     0.0000000000000000   40.0000000000000000    0.0000000000000000
     0.0000000000000000    0.0000000000000000   40.0000000000000000
   C    H 
     7     8
Selective dynamics
Direct
  0.5517410907912432  0.4999964090598512  0.5001595653104081   T   T   T
  0.5342360102789599  0.4690181622429523  0.4999878333568770   T   T   T
  0.4999128861726332  0.4689325309560631  0.4997756451750161   T   T   T
  0.4817319171189579  0.5000047620271049  0.4994954808482548   T   T   T
  0.4450164233308059  0.5000077959979806  0.4993002332145500   T   T   T
  0.4999192062783616  0.5310724867727967  0.4997793997363906   T   T   T
  0.5342410141327780  0.5309789844423465  0.4999919506282842   T   T   T
  0.4346333473178544  0.5228163606868145  0.4881488667766804   T   T   T
  0.4346371851253084  0.4772595932275269  0.4880179437989745   T   T   T
  0.4364593591310890  0.4999171846206146  0.5257796830366117   T   T   T
  0.5482990157706210  0.5542793913381358  0.4999711050204478   T   T   T
  0.4859477232184906  0.5544570679253141  0.4996074372616772   T   T   T
  0.4859395616239577  0.4455493956275137  0.4996025623182619   T   T   T
  0.5482906786735703  0.4457156949715663  0.4999638347948746   T   T   T
  0.5789965810353561  0.4999951801034454  0.5004164587226819   T   T   T
 
  0.00000000E+00  0.00000000E+00  0.00000000E+00
  0.00000000E+00  0.00000000E+00  0.00000000E+00
  0.00000000E+00  0.00000000E+00  0.00000000E+00
  0.00000000E+00  0.00000000E+00  0.00000000E+00
  0.00000000E+00  0.00000000E+00  0.00000000E+00
  0.00000000E+00  0.00000000E+00  0.00000000E+00
  0.00000000E+00  0.00000000E+00  0.00000000E+00
  0.00000000E+00  0.00000000E+00  0.00000000E+00
  0.00000000E+00  0.00000000E+00  0.00000000E+00
  0.00000000E+00  0.00000000E+00  0.00000000E+00
  0.00000000E+00  0.00000000E+00  0.00000000E+00
  0.00000000E+00  0.00000000E+00  0.00000000E+00
  0.00000000E+00  0.00000000E+00  0.00000000E+00
  0.00000000E+00  0.00000000E+00  0.00000000E+00
  0.00000000E+00  0.00000000E+00  0.00000000E+00
