C H                                     
   1.00000000000000     
    40.0000000000000000    0.0000000000000000    0.0000000000000000
     0.0000000000000000   40.0000000000000000    0.0000000000000000
     0.0000000000000000    0.0000000000000000   40.0000000000000000
   C    H 
     6     6
Selective dynamics
Direct
  0.4683807850967199  0.5163623248479539  0.5000000000000000   T   T   T
  0.4991395069614697  0.5346348634766187  0.5000000000000000   T   T   T
  0.5307661207419372  0.5179480102091532  0.5000000000000000   T   T   T
  0.5316192149032801  0.4836376751520461  0.5000000000000000   T   T   T
  0.5008604930385303  0.4653651365233813  0.5000000000000000   T   T   T
  0.4692338792580628  0.4820519897908468  0.5000000000000000   T   T   T
  0.4463417875862845  0.4673330346000668  0.5000000000000000   T   T   T
  0.5015543540031331  0.4381323702676099  0.5000000000000000   T   T   T
  0.5552184505850448  0.4700776350290568  0.4999990000000025   T   T   T
  0.5536582124137226  0.5326669653999332  0.5000000000000000   T   T   T
  0.4984456459968740  0.5618676297323901  0.5000000000000000   T   T   T
  0.4447815494149552  0.5299223649709504  0.5000000000000000   T   T   T
 
  0.00000000E+00  0.00000000E+00  0.00000000E+00
  0.00000000E+00  0.00000000E+00  0.00000000E+00
  0.00000000E+00  0.00000000E+00  0.00000000E+00
  0.00000000E+00  0.00000000E+00  0.00000000E+00
  0.00000000E+00  0.00000000E+00  0.00000000E+00
  0.00000000E+00  0.00000000E+00  0.00000000E+00
  0.00000000E+00  0.00000000E+00  0.00000000E+00
  0.00000000E+00  0.00000000E+00  0.00000000E+00
  0.00000000E+00  0.00000000E+00  0.00000000E+00
  0.00000000E+00  0.00000000E+00  0.00000000E+00
  0.00000000E+00  0.00000000E+00  0.00000000E+00
  0.00000000E+00  0.00000000E+00  0.00000000E+00
