C N H                                   
   1.00000000000000     
    40.0000000000000000    0.0000000000000000    0.0000000000000000
     0.0000000000000000   40.0000000000000000    0.0000000000000000
     0.0000000000000000    0.0000000000000000   40.0000000000000000
   C    N    H 
     9     2    16
Selective dynamics
Direct
  0.5680507604288252  0.4779060947955003  0.5128899217242093   T   T   T
  0.5109698154731106  0.4806813522560702  0.4935945507984201   T   T   T
  0.4811401082071640  0.5344081131665845  0.4872948220426494   T   T   T
  0.4528535152222943  0.5276568829167800  0.5123957700166102   T   T   T
  0.4318736949620785  0.4964649492850199  0.5051361397814631   T   T   T
  0.4510814770115203  0.4634239543995164  0.5064403886226074   T   T   T
  0.4808259362241287  0.4616929336366695  0.4818893323549958   T   T   T
  0.5421954418279995  0.5327686650054062  0.5015919884889897   T   T   T
  0.5727315210706792  0.5112745199941386  0.4951649303930452   T   T   T
  0.5355212102274152  0.4636279765117095  0.5079734763593322   T   T   T
  0.5115975045158407  0.5145203219551959  0.4928722407367516   T   T   T
  0.4732624595135064  0.4710347024420756  0.4571185360214614   T   T   T
  0.4888867889845443  0.4356586326663958  0.4788657558729597   T   T   T
  0.4602114132073325  0.4585313478999140  0.5319662303090027   T   T   T
  0.4339744381085922  0.4428584943663125  0.5001224826543478   T   T   T
  0.4110796062033018  0.4954659281848279  0.5231130244148403   T   T   T
  0.4204691272387322  0.4991785245891620  0.4801699485260826   T   T   T
  0.4634847593304272  0.5267716876171633  0.5377827471592482   T   T   T
  0.4365339841175668  0.5497671988602733  0.5114789348263571   T   T   T
  0.4725599650361758  0.5295804763722955  0.4615498519310606   T   T   T
  0.4889173614117084  0.5606110539932487  0.4886600489932889   T   T   T
  0.5951820243172961  0.5240865758881270  0.5042837605312442   T   T   T
  0.5756457035811806  0.5071742668917310  0.4681485952651485   T   T   T
  0.5424209534242337  0.5556338813075072  0.4864062181966204   T   T   T
  0.5402022029305726  0.5405632281524078  0.5279928004911056   T   T   T
  0.5717680077555158  0.4796124405426951  0.5402822818716260   T   T   T
  0.5865592196682812  0.4590467963032694  0.5048152216165249   T   T   T
 
  0.00000000E+00  0.00000000E+00  0.00000000E+00
  0.00000000E+00  0.00000000E+00  0.00000000E+00
  0.00000000E+00  0.00000000E+00  0.00000000E+00
  0.00000000E+00  0.00000000E+00  0.00000000E+00
  0.00000000E+00  0.00000000E+00  0.00000000E+00
  0.00000000E+00  0.00000000E+00  0.00000000E+00
  0.00000000E+00  0.00000000E+00  0.00000000E+00
  0.00000000E+00  0.00000000E+00  0.00000000E+00
  0.00000000E+00  0.00000000E+00  0.00000000E+00
  0.00000000E+00  0.00000000E+00  0.00000000E+00
  0.00000000E+00  0.00000000E+00  0.00000000E+00
  0.00000000E+00  0.00000000E+00  0.00000000E+00
  0.00000000E+00  0.00000000E+00  0.00000000E+00
  0.00000000E+00  0.00000000E+00  0.00000000E+00
  0.00000000E+00  0.00000000E+00  0.00000000E+00
  0.00000000E+00  0.00000000E+00  0.00000000E+00
  0.00000000E+00  0.00000000E+00  0.00000000E+00
  0.00000000E+00  0.00000000E+00  0.00000000E+00
  0.00000000E+00  0.00000000E+00  0.00000000E+00
  0.00000000E+00  0.00000000E+00  0.00000000E+00
  0.00000000E+00  0.00000000E+00  0.00000000E+00
  0.00000000E+00  0.00000000E+00  0.00000000E+00
  0.00000000E+00  0.00000000E+00  0.00000000E+00
  0.00000000E+00  0.00000000E+00  0.00000000E+00
  0.00000000E+00  0.00000000E+00  0.00000000E+00
  0.00000000E+00  0.00000000E+00  0.00000000E+00
  0.00000000E+00  0.00000000E+00  0.00000000E+00
