C O H                                   
   1.00000000000000     
    40.0000000000000000    0.0000000000000000    0.0000000000000000
     0.0000000000000000   40.0000000000000000    0.0000000000000000
     0.0000000000000000    0.0000000000000000   40.0000000000000000
   C    O    H 
     8     1     6
Selective dynamics
Direct
  0.5168956966740702  0.4606762803205858  0.5000000000000000   T   T   T
  0.5478432915343383  0.4782879681006653  0.5000000000000000   T   T   T
  0.5495981102501298  0.5134713415836540  0.5000000000000000   T   T   T
  0.5207753592314343  0.5327934362903062  0.5000000000000000   T   T   T
  0.4893876879760793  0.5158572677244951  0.5000000000000000   T   T   T
  0.4889509357335397  0.4803372120761185  0.5000000000000000   T   T   T
  0.4367067036355044  0.4965562888024149  0.5000000000000000   T   T   T
  0.4558566419346025  0.5261713830480800  0.5000000000000000   T   T   T
  0.4558050239931482  0.4691094203307489  0.5000000000000000   T   T   T
  0.4457821633172930  0.5513667958630002  0.5000000000000000   T   T   T
  0.4098497991249639  0.4925733414505908  0.5000009999999975   T   T   T
  0.5217584514693654  0.5600055671344353  0.5000000000000000   T   T   T
  0.5740185240032750  0.5254939637221102  0.5000000000000000   T   T   T
  0.5709102109488479  0.4637976200044734  0.5000000000000000   T   T   T
  0.5158604001734107  0.4335011135483238  0.5000000000000000   T   T   T
 
  0.00000000E+00  0.00000000E+00  0.00000000E+00
  0.00000000E+00  0.00000000E+00  0.00000000E+00
  0.00000000E+00  0.00000000E+00  0.00000000E+00
  0.00000000E+00  0.00000000E+00  0.00000000E+00
  0.00000000E+00  0.00000000E+00  0.00000000E+00
  0.00000000E+00  0.00000000E+00  0.00000000E+00
  0.00000000E+00  0.00000000E+00  0.00000000E+00
  0.00000000E+00  0.00000000E+00  0.00000000E+00
  0.00000000E+00  0.00000000E+00  0.00000000E+00
  0.00000000E+00  0.00000000E+00  0.00000000E+00
  0.00000000E+00  0.00000000E+00  0.00000000E+00
  0.00000000E+00  0.00000000E+00  0.00000000E+00
  0.00000000E+00  0.00000000E+00  0.00000000E+00
  0.00000000E+00  0.00000000E+00  0.00000000E+00
  0.00000000E+00  0.00000000E+00  0.00000000E+00
