C H                                     
   1.00000000000000     
    40.0000000000000000    0.0000000000000000    0.0000000000000000
     0.0000000000000000   40.0000000000000000    0.0000000000000000
     0.0000000000000000    0.0000000000000000   40.0000000000000000
   C    H 
    12    14
Selective dynamics
Direct
  0.5476092800670713  0.4686045942752363  0.4943354742803516   T   T   T
  0.5822162697151970  0.4690017238588893  0.4948299737485694   T   T   T
  0.5993639495458797  0.4989463929215228  0.5013131145495751   T   T   T
  0.5815617888375618  0.5288359712419129  0.5066701341226468   T   T   T
  0.5470018532602487  0.5288776471016898  0.5054507129206571   T   T   T
  0.5289900600388724  0.4986656864775391  0.4996227591101675   T   T   T
  0.4929215390686201  0.4990413696032763  0.4991738157985565   T   T   T
  0.4749534516526840  0.4694129003293250  0.5044355170530274   T   T   T
  0.4384002246522401  0.4677701450449652  0.5077503176513419   T   T   T
  0.4203534064568751  0.5014628867185533  0.5082062494853993   T   T   T
  0.4375771077279405  0.5259120284284735  0.4844419999909058   T   T   T
  0.4741013158206245  0.5312088292157884  0.4947178774819662   T   T   T
  0.4872392042545637  0.5470541502967654  0.4765176963098651   T   T   T
  0.4749496953343083  0.5450084481354839  0.5186741616418965   T   T   T
  0.4247109294178357  0.5501674747837202  0.4842202661601183   T   T   T
  0.4366949657555136  0.5160808326992994  0.4587029181006743   T   T   T
  0.3939935876230597  0.4979789499438962  0.5014002013525898   T   T   T
  0.4207960212908650  0.5116733582760189  0.5337765102368468   T   T   T
  0.4297549235024536  0.4520332115311025  0.4864707954571357   T   T   T
  0.4323477312936830  0.4519770726086805  0.5296094499447486   T   T   T
  0.4884157866542373  0.4458311668753163  0.5069385967234850   T   T   T
  0.5334900611367276  0.5520765808994991  0.5099075285531479   T   T   T
  0.5950665757951960  0.5519122141102196  0.5118698170346089   T   T   T
  0.6266061377198889  0.4990817868918804  0.5021604500229011   T   T   T
  0.5961455722490826  0.4460769467656941  0.4901290431583167   T   T   T
  0.5347365611288036  0.4453066309652848  0.4886746191104882   T   T   T
 
  0.00000000E+00  0.00000000E+00  0.00000000E+00
  0.00000000E+00  0.00000000E+00  0.00000000E+00
  0.00000000E+00  0.00000000E+00  0.00000000E+00
  0.00000000E+00  0.00000000E+00  0.00000000E+00
  0.00000000E+00  0.00000000E+00  0.00000000E+00
  0.00000000E+00  0.00000000E+00  0.00000000E+00
  0.00000000E+00  0.00000000E+00  0.00000000E+00
  0.00000000E+00  0.00000000E+00  0.00000000E+00
  0.00000000E+00  0.00000000E+00  0.00000000E+00
  0.00000000E+00  0.00000000E+00  0.00000000E+00
  0.00000000E+00  0.00000000E+00  0.00000000E+00
  0.00000000E+00  0.00000000E+00  0.00000000E+00
  0.00000000E+00  0.00000000E+00  0.00000000E+00
  0.00000000E+00  0.00000000E+00  0.00000000E+00
  0.00000000E+00  0.00000000E+00  0.00000000E+00
  0.00000000E+00  0.00000000E+00  0.00000000E+00
  0.00000000E+00  0.00000000E+00  0.00000000E+00
  0.00000000E+00  0.00000000E+00  0.00000000E+00
  0.00000000E+00  0.00000000E+00  0.00000000E+00
  0.00000000E+00  0.00000000E+00  0.00000000E+00
  0.00000000E+00  0.00000000E+00  0.00000000E+00
  0.00000000E+00  0.00000000E+00  0.00000000E+00
  0.00000000E+00  0.00000000E+00  0.00000000E+00
  0.00000000E+00  0.00000000E+00  0.00000000E+00
  0.00000000E+00  0.00000000E+00  0.00000000E+00
  0.00000000E+00  0.00000000E+00  0.00000000E+00
