C O H                                   
   1.00000000000000     
    40.0000000000000000    0.0000000000000000    0.0000000000000000
     0.0000000000000000   40.0000000000000000    0.0000000000000000
     0.0000000000000000    0.0000000000000000   40.0000000000000000
   C    O    H 
    10     1    12
Selective dynamics
Direct
  0.4857952125820371  0.5199932842896191  0.4999946206219170   T   T   T
  0.4535520127737498  0.5066273759195442  0.4999968833813637   T   T   T
  0.4489515316403572  0.4720968872911523  0.5000007666502090   T   T   T
  0.4771650185947522  0.4515123988092038  0.5000016009608108   T   T   T
  0.5091795808682196  0.4645860193268345  0.4999991988234708   T   T   T
  0.5139826458510465  0.4994329088105417  0.4999962827842442   T   T   T
  0.5469675768024365  0.5152763160329320  0.4999972425266352   T   T   T
  0.5767618785298367  0.5000469455744448  0.5000018784147897   T   T   T
  0.6095377770127337  0.5177665865310997  0.5000006776979192   T   T   T
  0.3947772519690880  0.5171619175075347  0.5000024614104325   T   T   T
  0.4282143900747946  0.5294970229963317  0.4999974041123807   T   T   T
  0.6244525646481432  0.5108110669086475  0.4781233036743307   T   T   T
  0.6244484922420513  0.5108248094997063  0.5218853054367535   T   T   T
  0.6063750895569634  0.5448630840564367  0.4999918010181658   T   T   T
  0.5779911041014644  0.4728804069510831  0.5000108091752496   T   T   T
  0.5466114257078895  0.5425150674124695  0.4999900149760690   T   T   T
  0.5304434476766389  0.4478180090637472  0.4999995692789739   T   T   T
  0.4737012814369976  0.4246128788044805  0.5000035756835267   T   T   T
  0.4242317277141157  0.4611452514235218  0.5000034632937865   T   T   T
  0.3788001837988298  0.5391529963928524  0.5000028532841025   T   T   T
  0.3897503619761319  0.5022030923780537  0.5223383190332759   T   T   T
  0.3897451844533336  0.5022000244232843  0.4776693844265815   T   T   T
  0.4885642599884172  0.5469756495964505  0.4999925833349972   T   T   T
 
  0.00000000E+00  0.00000000E+00  0.00000000E+00
  0.00000000E+00  0.00000000E+00  0.00000000E+00
  0.00000000E+00  0.00000000E+00  0.00000000E+00
  0.00000000E+00  0.00000000E+00  0.00000000E+00
  0.00000000E+00  0.00000000E+00  0.00000000E+00
  0.00000000E+00  0.00000000E+00  0.00000000E+00
  0.00000000E+00  0.00000000E+00  0.00000000E+00
  0.00000000E+00  0.00000000E+00  0.00000000E+00
  0.00000000E+00  0.00000000E+00  0.00000000E+00
  0.00000000E+00  0.00000000E+00  0.00000000E+00
  0.00000000E+00  0.00000000E+00  0.00000000E+00
  0.00000000E+00  0.00000000E+00  0.00000000E+00
  0.00000000E+00  0.00000000E+00  0.00000000E+00
  0.00000000E+00  0.00000000E+00  0.00000000E+00
  0.00000000E+00  0.00000000E+00  0.00000000E+00
  0.00000000E+00  0.00000000E+00  0.00000000E+00
  0.00000000E+00  0.00000000E+00  0.00000000E+00
  0.00000000E+00  0.00000000E+00  0.00000000E+00
  0.00000000E+00  0.00000000E+00  0.00000000E+00
  0.00000000E+00  0.00000000E+00  0.00000000E+00
  0.00000000E+00  0.00000000E+00  0.00000000E+00
  0.00000000E+00  0.00000000E+00  0.00000000E+00
  0.00000000E+00  0.00000000E+00  0.00000000E+00
