C N O H                                 
   1.00000000000000     
    40.0000000000000000    0.0000000000000000    0.0000000000000000
     0.0000000000000000   40.0000000000000000    0.0000000000000000
     0.0000000000000000    0.0000000000000000   40.0000000000000000
   C    N    O    H 
     8     1     3     7
Selective dynamics
Direct
  0.5011610685816661  0.4633239081373406  0.4999853173570689   T   T   T
  0.4666719738683925  0.4633009518657671  0.5000063007438919   T   T   T
  0.4489826642521458  0.4940831100559300  0.5000339281476190   T   T   T
  0.4671415913794648  0.5245468671734625  0.5000336651754153   T   T   T
  0.5017408057239423  0.5240714802044020  0.5000139562350800   T   T   T
  0.5198969922874499  0.4935302411908121  0.4999876460804022   T   T   T
  0.5564709359779578  0.4919990865783583  0.4999587268868435   T   T   T
  0.5763178813377492  0.5243256475425163  0.4999416180963738   T   T   T
  0.4139016166461870  0.4942756812444236  0.5000616825558368   T   T   T
  0.5717538623350820  0.4645603861800378  0.4999535181703299   T   T   T
  0.3981946905955824  0.5223667127418111  0.5000834989567824   T   T   T
  0.3979429855185329  0.4663185552550782  0.5000606997865942   T   T   T
  0.5704892061654758  0.5395802152051750  0.5220790066279920   T   T   T
  0.6030610953846111  0.5184089241479387  0.4998804779300380   T   T   T
  0.5703882717866731  0.5396326457845668  0.4778677079002811   T   T   T
  0.5149937459883687  0.5478998509472729  0.5000222742789668   T   T   T
  0.4534620347481441  0.5480638230574609  0.5000656873860179   T   T   T
  0.4526167958231944  0.4399987219011578  0.5000043966321289   T   T   T
  0.5148107815993825  0.4397171907864925  0.4999588910523463   T   T   T
 
  0.00000000E+00  0.00000000E+00  0.00000000E+00
  0.00000000E+00  0.00000000E+00  0.00000000E+00
  0.00000000E+00  0.00000000E+00  0.00000000E+00
  0.00000000E+00  0.00000000E+00  0.00000000E+00
  0.00000000E+00  0.00000000E+00  0.00000000E+00
  0.00000000E+00  0.00000000E+00  0.00000000E+00
  0.00000000E+00  0.00000000E+00  0.00000000E+00
  0.00000000E+00  0.00000000E+00  0.00000000E+00
  0.00000000E+00  0.00000000E+00  0.00000000E+00
  0.00000000E+00  0.00000000E+00  0.00000000E+00
  0.00000000E+00  0.00000000E+00  0.00000000E+00
  0.00000000E+00  0.00000000E+00  0.00000000E+00
  0.00000000E+00  0.00000000E+00  0.00000000E+00
  0.00000000E+00  0.00000000E+00  0.00000000E+00
  0.00000000E+00  0.00000000E+00  0.00000000E+00
  0.00000000E+00  0.00000000E+00  0.00000000E+00
  0.00000000E+00  0.00000000E+00  0.00000000E+00
  0.00000000E+00  0.00000000E+00  0.00000000E+00
  0.00000000E+00  0.00000000E+00  0.00000000E+00
