C N O H                                 
   1.00000000000000     
    40.0000000000000000    0.0000000000000000    0.0000000000000000
     0.0000000000000000   40.0000000000000000    0.0000000000000000
     0.0000000000000000    0.0000000000000000   40.0000000000000000
   C    N    O    H 
    10     1     1    13
Selective dynamics
Direct
  0.4673410143108241  0.5296528352288158  0.5016205187152649   T   T   T
  0.4337397059717532  0.5330249516648868  0.4928101817898510   T   T   T
  0.4128559279657906  0.5051852036420115  0.4901802377959744   T   T   T
  0.4263822048626296  0.4736100520543876  0.4968437786957945   T   T   T
  0.4597761563271237  0.4699068312817303  0.5058898954799361   T   T   T
  0.4812753740455218  0.4979062385740914  0.5085412693488817   T   T   T
  0.5341818773170480  0.4651333324667666  0.5079372411356963   T   T   T
  0.5558825076567346  0.4747710282050888  0.4778882504568095   T   T   T
  0.5573086666804629  0.5312189828482485  0.4952493884992487   T   T   T
  0.5359118162909954  0.5224697014245455  0.5256667996735552   T   T   T
  0.5143444889268030  0.4938204666052802  0.5190105612760991   T   T   T
  0.5768979089047208  0.5028751511252846  0.4851961207324210   T   T   T
  0.5503693332642829  0.4569456154915222  0.5287014379827272   T   T   T
  0.5179760910289718  0.4441396750856629  0.5011301395588058   T   T   T
  0.5395847517886870  0.4806292102453610  0.4562537448063072   T   T   T
  0.5727308315662355  0.4542018584399631  0.4709844428753808   T   T   T
  0.5751901750811242  0.5512225739555433  0.5011058508182097   T   T   T
  0.5412372250001368  0.5394274341271648  0.4742404005271975   T   T   T
  0.5210835665525169  0.5439554170386045  0.5340250929241560   T   T   T
  0.5527547783297836  0.5155594385239406  0.5464017784513647   T   T   T
  0.4690832349134224  0.4449921992020460  0.5118128103850594   T   T   T
  0.4105872242214947  0.4514050439596265  0.4953753631799250   T   T   T
  0.3866815400823658  0.5079599376984782  0.4831416733769432   T   T   T
  0.4239937247538914  0.5579615389931641  0.4875123912915164   T   T   T
  0.4828268741566796  0.5520262821177969  0.5024816302228570   T   T   T
 
  0.00000000E+00  0.00000000E+00  0.00000000E+00
  0.00000000E+00  0.00000000E+00  0.00000000E+00
  0.00000000E+00  0.00000000E+00  0.00000000E+00
  0.00000000E+00  0.00000000E+00  0.00000000E+00
  0.00000000E+00  0.00000000E+00  0.00000000E+00
  0.00000000E+00  0.00000000E+00  0.00000000E+00
  0.00000000E+00  0.00000000E+00  0.00000000E+00
  0.00000000E+00  0.00000000E+00  0.00000000E+00
  0.00000000E+00  0.00000000E+00  0.00000000E+00
  0.00000000E+00  0.00000000E+00  0.00000000E+00
  0.00000000E+00  0.00000000E+00  0.00000000E+00
  0.00000000E+00  0.00000000E+00  0.00000000E+00
  0.00000000E+00  0.00000000E+00  0.00000000E+00
  0.00000000E+00  0.00000000E+00  0.00000000E+00
  0.00000000E+00  0.00000000E+00  0.00000000E+00
  0.00000000E+00  0.00000000E+00  0.00000000E+00
  0.00000000E+00  0.00000000E+00  0.00000000E+00
  0.00000000E+00  0.00000000E+00  0.00000000E+00
  0.00000000E+00  0.00000000E+00  0.00000000E+00
  0.00000000E+00  0.00000000E+00  0.00000000E+00
  0.00000000E+00  0.00000000E+00  0.00000000E+00
  0.00000000E+00  0.00000000E+00  0.00000000E+00
  0.00000000E+00  0.00000000E+00  0.00000000E+00
  0.00000000E+00  0.00000000E+00  0.00000000E+00
  0.00000000E+00  0.00000000E+00  0.00000000E+00
