C O H                                   
   1.00000000000000     
    40.0000000000000000    0.0000000000000000    0.0000000000000000
     0.0000000000000000   40.0000000000000000    0.0000000000000000
     0.0000000000000000    0.0000000000000000   40.0000000000000000
   C    O    H 
     8     1     6
Selective dynamics
Direct
  0.5167428896679749  0.4608895259172712  0.5000000000000000   T   T   T
  0.5473769754400136  0.4783874759332394  0.5000000000000000   T   T   T
  0.5491955069459443  0.5134575002999436  0.5000000000000000   T   T   T
  0.5206813219403160  0.5326481651921808  0.5000000000000000   T   T   T
  0.4894586421441811  0.5157852115214958  0.5000000000000000   T   T   T
  0.4889662129500652  0.4803955907864217  0.5000000000000000   T   T   T
  0.4372213859371789  0.4964974111352599  0.5000000000000000   T   T   T
  0.4562157991520219  0.5260007922380732  0.5000000000000000   T   T   T
  0.4562260915856860  0.4694153530526483  0.5000000000000000   T   T   T
  0.4461208375380135  0.5509812791828888  0.5000000000000000   T   T   T
  0.4105321141109923  0.4926352155877706  0.5000009999999975   T   T   T
  0.5216875441219815  0.5596665741102135  0.5000000000000000   T   T   T
  0.5735083501211282  0.5252913467288750  0.5000000000000000   T   T   T
  0.5703278666938152  0.4640484580590894  0.5000000000000000   T   T   T
  0.5157374616506690  0.4338991002546164  0.5000000000000000   T   T   T
 
  0.00000000E+00  0.00000000E+00  0.00000000E+00
  0.00000000E+00  0.00000000E+00  0.00000000E+00
  0.00000000E+00  0.00000000E+00  0.00000000E+00
  0.00000000E+00  0.00000000E+00  0.00000000E+00
  0.00000000E+00  0.00000000E+00  0.00000000E+00
  0.00000000E+00  0.00000000E+00  0.00000000E+00
  0.00000000E+00  0.00000000E+00  0.00000000E+00
  0.00000000E+00  0.00000000E+00  0.00000000E+00
  0.00000000E+00  0.00000000E+00  0.00000000E+00
  0.00000000E+00  0.00000000E+00  0.00000000E+00
  0.00000000E+00  0.00000000E+00  0.00000000E+00
  0.00000000E+00  0.00000000E+00  0.00000000E+00
  0.00000000E+00  0.00000000E+00  0.00000000E+00
  0.00000000E+00  0.00000000E+00  0.00000000E+00
  0.00000000E+00  0.00000000E+00  0.00000000E+00
