C H                                     
   1.00000000000000     
    40.0000000000000000    0.0000000000000000    0.0000000000000000
     0.0000000000000000   40.0000000000000000    0.0000000000000000
     0.0000000000000000    0.0000000000000000   40.0000000000000000
   C    H 
    14    12
Selective dynamics
Direct
  0.5606098117308322  0.4776951771515539  0.5150565562586059   T   T   T
  0.5315477110152719  0.4903485997905963  0.4991287915363015   T   T   T
  0.5335730196377645  0.5211375800802402  0.4815332752373582   T   T   T
  0.5635272806785423  0.5385579505045739  0.4800415901727303   T   T   T
  0.5918639658072603  0.5259724186399548  0.4963791049009802   T   T   T
  0.5902333312688050  0.4956285396301516  0.5140190765975324   T   T   T
  0.5000000000000000  0.4721183744515796  0.5000000000000000   T   T   T
  0.5000000000000000  0.4374360491853219  0.4999990000000025   T   T   T
  0.4684522889847352  0.4903485997905963  0.5008712084636984   T   T   T
  0.4393901882691678  0.4776961771515585  0.4849434437413940   T   T   T
  0.4097666687311950  0.4956295396301491  0.4859809234024677   T   T   T
  0.4081360341927397  0.5259734186399523  0.5036208950990200   T   T   T
  0.4364727193214576  0.5385579505045739  0.5199594098272815   T   T   T
  0.4664269803622353  0.5211375800802402  0.5184677247626391   T   T   T
  0.6122420755214945  0.4862849655064317  0.5270252438491263   T   T   T
  0.6153682461180983  0.5396821815372721  0.4952113315605678   T   T   T
  0.5650660807007954  0.5617979864918194  0.4659483628263565   T   T   T
  0.5117318279200994  0.5303090869866438  0.4680971621415391   T   T   T
  0.4767511957478031  0.4233179822814616  0.4993439453495832   T   T   T
  0.5232478042521995  0.4233169822814570  0.5006540546504149   T   T   T
  0.4882681720799006  0.5303080869866463  0.5319038378584585   T   T   T
  0.4349339192992044  0.5617969864918220  0.5340536371736454   T   T   T
  0.3846317538819018  0.5396831815372767  0.5047896684394295   T   T   T
  0.3877579244785057  0.4862859655064292  0.4729737561508762   T   T   T
  0.4407112953252722  0.4544888195808570  0.4707690587308667   T   T   T
  0.5592887046747279  0.4544878195808595  0.5292289412691312   T   T   T
 
  0.00000000E+00  0.00000000E+00  0.00000000E+00
  0.00000000E+00  0.00000000E+00  0.00000000E+00
  0.00000000E+00  0.00000000E+00  0.00000000E+00
  0.00000000E+00  0.00000000E+00  0.00000000E+00
  0.00000000E+00  0.00000000E+00  0.00000000E+00
  0.00000000E+00  0.00000000E+00  0.00000000E+00
  0.00000000E+00  0.00000000E+00  0.00000000E+00
  0.00000000E+00  0.00000000E+00  0.00000000E+00
  0.00000000E+00  0.00000000E+00  0.00000000E+00
  0.00000000E+00  0.00000000E+00  0.00000000E+00
  0.00000000E+00  0.00000000E+00  0.00000000E+00
  0.00000000E+00  0.00000000E+00  0.00000000E+00
  0.00000000E+00  0.00000000E+00  0.00000000E+00
  0.00000000E+00  0.00000000E+00  0.00000000E+00
  0.00000000E+00  0.00000000E+00  0.00000000E+00
  0.00000000E+00  0.00000000E+00  0.00000000E+00
  0.00000000E+00  0.00000000E+00  0.00000000E+00
  0.00000000E+00  0.00000000E+00  0.00000000E+00
  0.00000000E+00  0.00000000E+00  0.00000000E+00
  0.00000000E+00  0.00000000E+00  0.00000000E+00
  0.00000000E+00  0.00000000E+00  0.00000000E+00
  0.00000000E+00  0.00000000E+00  0.00000000E+00
  0.00000000E+00  0.00000000E+00  0.00000000E+00
  0.00000000E+00  0.00000000E+00  0.00000000E+00
  0.00000000E+00  0.00000000E+00  0.00000000E+00
  0.00000000E+00  0.00000000E+00  0.00000000E+00
