C O H                                   
   1.00000000000000     
    40.0000000000000000    0.0000000000000000    0.0000000000000000
     0.0000000000000000   40.0000000000000000    0.0000000000000000
     0.0000000000000000    0.0000000000000000   40.0000000000000000
   C    O    H 
    10     1    12
Selective dynamics
Direct
  0.4723399713846093  0.4904112186926131  0.4993428543489420   T   T   T
  0.4405597520165205  0.5050608192363286  0.5001436877241799   T   T   T
  0.4380087279773441  0.5394073835783315  0.5005871233500039   T   T   T
  0.4667865455754143  0.5601035331349103  0.5002276289267666   T   T   T
  0.4979962117122615  0.5461653762301396  0.4995715389196370   T   T   T
  0.5022721116159292  0.5109519866995735  0.4990344836420534   T   T   T
  0.5339311610425829  0.4951045183112734  0.4979777357086043   T   T   T
  0.5640783593875094  0.5112296409890923  0.5010826418096149   T   T   T
  0.5965355788107988  0.4940077993333225  0.4999410336947177   T   T   T
  0.4494781020672842  0.4350151888091860  0.5002836751199408   T   T   T
  0.4776098008455927  0.4577576004909631  0.4992418751966234   T   T   T
  0.5942585300240024  0.4675613067472114  0.4938996877227111   T   T   T
  0.6130146469240264  0.5063685370023955  0.4819020224990030   T   T   T
  0.6091785030839348  0.4967565427063441  0.5241341672678395   T   T   T
  0.5646718140467402  0.5380232158665151  0.5052264064012667   T   T   T
  0.5342291291302024  0.4681672092841239  0.4949767971554024   T   T   T
  0.5197617115433267  0.5621594632140180  0.4988889919872775   T   T   T
  0.4638214156219332  0.5870073731428979  0.5003211269694806   T   T   T
  0.4134728847699836  0.5508657349051734  0.5011982929907732   T   T   T
  0.4183061479681205  0.4897671787469627  0.5004217119467805   T   T   T
  0.4337542622714599  0.4388543528078339  0.4783772005526125   T   T   T
  0.4354259112987269  0.4390057437888010  0.5232763279490746   T   T   T
  0.4605067208816796  0.4102492762819929  0.4999419881167113   T   T   T
 
  0.00000000E+00  0.00000000E+00  0.00000000E+00
  0.00000000E+00  0.00000000E+00  0.00000000E+00
  0.00000000E+00  0.00000000E+00  0.00000000E+00
  0.00000000E+00  0.00000000E+00  0.00000000E+00
  0.00000000E+00  0.00000000E+00  0.00000000E+00
  0.00000000E+00  0.00000000E+00  0.00000000E+00
  0.00000000E+00  0.00000000E+00  0.00000000E+00
  0.00000000E+00  0.00000000E+00  0.00000000E+00
  0.00000000E+00  0.00000000E+00  0.00000000E+00
  0.00000000E+00  0.00000000E+00  0.00000000E+00
  0.00000000E+00  0.00000000E+00  0.00000000E+00
  0.00000000E+00  0.00000000E+00  0.00000000E+00
  0.00000000E+00  0.00000000E+00  0.00000000E+00
  0.00000000E+00  0.00000000E+00  0.00000000E+00
  0.00000000E+00  0.00000000E+00  0.00000000E+00
  0.00000000E+00  0.00000000E+00  0.00000000E+00
  0.00000000E+00  0.00000000E+00  0.00000000E+00
  0.00000000E+00  0.00000000E+00  0.00000000E+00
  0.00000000E+00  0.00000000E+00  0.00000000E+00
  0.00000000E+00  0.00000000E+00  0.00000000E+00
  0.00000000E+00  0.00000000E+00  0.00000000E+00
  0.00000000E+00  0.00000000E+00  0.00000000E+00
  0.00000000E+00  0.00000000E+00  0.00000000E+00
