C H                                     
   1.00000000000000     
    40.0000000000000000    0.0000000000000000    0.0000000000000000
     0.0000000000000000   40.0000000000000000    0.0000000000000000
     0.0000000000000000    0.0000000000000000   40.0000000000000000
   C    H 
     8    10
Selective dynamics
Direct
  0.4702286149666660  0.4682313409044889  0.5007650820478065   T   T   T
  0.5001451225284170  0.4506066051051555  0.5000522766272822   T   T   T
  0.5299701838031179  0.4684061341360317  0.4993787539050997   T   T   T
  0.5303170825491260  0.5047302496757797  0.4997389009948739   T   T   T
  0.5628823481061024  0.5221958424210315  0.4991457377111467   T   T   T
  0.4999585697133598  0.5218976492280871  0.5003863744410219   T   T   T
  0.4696997853824237  0.5045499567785157  0.5007640861497770   T   T   T
  0.4369984127812854  0.5217359355485798  0.5009840717952843   T   T   T
  0.5604841654911287  0.5492255998785961  0.5025433669096744   T   T   T
  0.5798958516087643  0.5117711406277135  0.5181536478597222   T   T   T
  0.5755089392898778  0.5173658842040009  0.4750272439657109   T   T   T
  0.4392708053402377  0.5489508360790205  0.5023211398469427   T   T   T
  0.4214781758894618  0.5126165293080204  0.5218771071519002   T   T   T
  0.4227850970679494  0.5149480975257467  0.4782798038105222   T   T   T
  0.4998843336314022  0.5491553452346190  0.5005972770333089   T   T   T
  0.5538526815238828  0.4552485437690681  0.4986284823615270   T   T   T
  0.5002272234311530  0.4234056382951343  0.5000077411738439   T   T   T
  0.4464126068956658  0.4549576712804131  0.5013499062145458   T   T   T
 
  0.00000000E+00  0.00000000E+00  0.00000000E+00
  0.00000000E+00  0.00000000E+00  0.00000000E+00
  0.00000000E+00  0.00000000E+00  0.00000000E+00
  0.00000000E+00  0.00000000E+00  0.00000000E+00
  0.00000000E+00  0.00000000E+00  0.00000000E+00
  0.00000000E+00  0.00000000E+00  0.00000000E+00
  0.00000000E+00  0.00000000E+00  0.00000000E+00
  0.00000000E+00  0.00000000E+00  0.00000000E+00
  0.00000000E+00  0.00000000E+00  0.00000000E+00
  0.00000000E+00  0.00000000E+00  0.00000000E+00
  0.00000000E+00  0.00000000E+00  0.00000000E+00
  0.00000000E+00  0.00000000E+00  0.00000000E+00
  0.00000000E+00  0.00000000E+00  0.00000000E+00
  0.00000000E+00  0.00000000E+00  0.00000000E+00
  0.00000000E+00  0.00000000E+00  0.00000000E+00
  0.00000000E+00  0.00000000E+00  0.00000000E+00
  0.00000000E+00  0.00000000E+00  0.00000000E+00
  0.00000000E+00  0.00000000E+00  0.00000000E+00
