C N O H                                 
   1.00000000000000     
    40.0000000000000000    0.0000000000000000    0.0000000000000000
     0.0000000000000000   40.0000000000000000    0.0000000000000000
     0.0000000000000000    0.0000000000000000   40.0000000000000000
   C    N    O    H 
     9     1     2     7
Selective dynamics
Direct
  0.5166078839272166  0.4643934448115193  0.4999997560028137   T   T   T
  0.5512655234573388  0.4668398555646469  0.4999970437741862   T   T   T
  0.5664487346177159  0.4986048818113218  0.4999949574333388   T   T   T
  0.5466194500007139  0.5276834099801033  0.4999957811074124   T   T   T
  0.5119566999466248  0.5249321048201164  0.4999983479587448   T   T   T
  0.4967440345438023  0.4933055712488565  0.4999999213420756   T   T   T
  0.4596221836874512  0.4889923159183664  0.5000026663256918   T   T   T
  0.4071978171197565  0.5166081987632758  0.5000067870609212   T   T   T
  0.6020526701795377  0.5013394156867864  0.4999933535246076   T   T   T
  0.6311959737440407  0.5035211056615291  0.4999945420740706   T   T   T
  0.4454419391499538  0.4618542824678158  0.5000040016668016   T   T   T
  0.4433345798352085  0.5187032296819847  0.5000051360593940   T   T   T
  0.3984239768208347  0.5033712407808865  0.4776395979788895   T   T   T
  0.3984441708257088  0.5425070241725489  0.5000181713063264   T   T   T
  0.3984253817461303  0.5033504051388559  0.5223619050336833   T   T   T
  0.4965423119650199  0.5473526696198949  0.4999960252230202   T   T   T
  0.5585544317822040  0.5521513278412378  0.4999917650763119   T   T   T
  0.5667419874591332  0.4444405899803812  0.4999979842913081   T   T   T
  0.5043802491916153  0.4400499260498631  0.5000022567604230   T   T   T
 
  0.00000000E+00  0.00000000E+00  0.00000000E+00
  0.00000000E+00  0.00000000E+00  0.00000000E+00
  0.00000000E+00  0.00000000E+00  0.00000000E+00
  0.00000000E+00  0.00000000E+00  0.00000000E+00
  0.00000000E+00  0.00000000E+00  0.00000000E+00
  0.00000000E+00  0.00000000E+00  0.00000000E+00
  0.00000000E+00  0.00000000E+00  0.00000000E+00
  0.00000000E+00  0.00000000E+00  0.00000000E+00
  0.00000000E+00  0.00000000E+00  0.00000000E+00
  0.00000000E+00  0.00000000E+00  0.00000000E+00
  0.00000000E+00  0.00000000E+00  0.00000000E+00
  0.00000000E+00  0.00000000E+00  0.00000000E+00
  0.00000000E+00  0.00000000E+00  0.00000000E+00
  0.00000000E+00  0.00000000E+00  0.00000000E+00
  0.00000000E+00  0.00000000E+00  0.00000000E+00
  0.00000000E+00  0.00000000E+00  0.00000000E+00
  0.00000000E+00  0.00000000E+00  0.00000000E+00
  0.00000000E+00  0.00000000E+00  0.00000000E+00
  0.00000000E+00  0.00000000E+00  0.00000000E+00
