C N H                                   
   1.00000000000000     
    40.0000000000000000    0.0000000000000000    0.0000000000000000
     0.0000000000000000   40.0000000000000000    0.0000000000000000
     0.0000000000000000    0.0000000000000000   40.0000000000000000
   C    N    H 
    10     1    17
Selective dynamics
Direct
  0.5271769953136124  0.4684009653510508  0.5014974514678228   T   T   T
  0.5092559688294598  0.5013486488572262  0.5011966338369593   T   T   T
  0.5268241927692638  0.5316343466131526  0.5006427365671512   T   T   T
  0.5637402626215490  0.5333627236110051  0.4991726528560884   T   T   T
  0.5802943323785811  0.5000682398541173  0.4905998785264667   T   T   T
  0.5641111206029166  0.4719676398428328  0.5105609281406271   T   T   T
  0.4546927871837120  0.5315804498815392  0.5019188110271993   T   T   T
  0.4195154009090735  0.5176918890344976  0.5067303280116008   T   T   T
  0.4210490868896784  0.4836652645637801  0.4893456563032820   T   T   T
  0.4556109023566102  0.4707914962206165  0.4988290711784312   T   T   T
  0.4760071172748264  0.5013695043798286  0.5009819062379561   T   T   T
  0.5766290152974517  0.4481679544634077  0.5059122396630115   T   T   T
  0.5664837545443681  0.4772152100848731  0.5373386691979676   T   T   T
  0.6070393393856781  0.5015186210741266  0.4958261305009469   T   T   T
  0.5775247132674237  0.4950721105952542  0.4638034683215301   T   T   T
  0.5709267741420463  0.5532159414883622  0.4817338800480102   T   T   T
  0.5725153007756419  0.5422553315627231  0.5237300088549200   T   T   T
  0.5130792892773088  0.5549363425925619  0.5012229808690252   T   T   T
  0.4665892663092265  0.4535686572785391  0.4808181780636829   T   T   T
  0.4555806618269883  0.4587719795988170  0.5234518835886334   T   T   T
  0.4014572414703621  0.4665691750535832  0.4973907136160199   T   T   T
  0.4193998473660629  0.4866749983091422  0.4622434818718458   T   T   T
  0.4007480915366991  0.5343217282997529  0.4961365605986205   T   T   T
  0.4142800181194665  0.5145407844505361  0.5333517638056087   T   T   T
  0.4629162414856027  0.5479780884045504  0.5220311911702423   T   T   T
  0.4573440311146719  0.5446889371617788  0.4780770080529257   T   T   T
  0.5145447430576633  0.4514952395424308  0.5188465014723285   T   T   T
  0.5246635038940548  0.4571297318299154  0.4766102861511411   T   T   T
 
  0.00000000E+00  0.00000000E+00  0.00000000E+00
  0.00000000E+00  0.00000000E+00  0.00000000E+00
  0.00000000E+00  0.00000000E+00  0.00000000E+00
  0.00000000E+00  0.00000000E+00  0.00000000E+00
  0.00000000E+00  0.00000000E+00  0.00000000E+00
  0.00000000E+00  0.00000000E+00  0.00000000E+00
  0.00000000E+00  0.00000000E+00  0.00000000E+00
  0.00000000E+00  0.00000000E+00  0.00000000E+00
  0.00000000E+00  0.00000000E+00  0.00000000E+00
  0.00000000E+00  0.00000000E+00  0.00000000E+00
  0.00000000E+00  0.00000000E+00  0.00000000E+00
  0.00000000E+00  0.00000000E+00  0.00000000E+00
  0.00000000E+00  0.00000000E+00  0.00000000E+00
  0.00000000E+00  0.00000000E+00  0.00000000E+00
  0.00000000E+00  0.00000000E+00  0.00000000E+00
  0.00000000E+00  0.00000000E+00  0.00000000E+00
  0.00000000E+00  0.00000000E+00  0.00000000E+00
  0.00000000E+00  0.00000000E+00  0.00000000E+00
  0.00000000E+00  0.00000000E+00  0.00000000E+00
  0.00000000E+00  0.00000000E+00  0.00000000E+00
  0.00000000E+00  0.00000000E+00  0.00000000E+00
  0.00000000E+00  0.00000000E+00  0.00000000E+00
  0.00000000E+00  0.00000000E+00  0.00000000E+00
  0.00000000E+00  0.00000000E+00  0.00000000E+00
  0.00000000E+00  0.00000000E+00  0.00000000E+00
  0.00000000E+00  0.00000000E+00  0.00000000E+00
  0.00000000E+00  0.00000000E+00  0.00000000E+00
  0.00000000E+00  0.00000000E+00  0.00000000E+00
