C F O H                                 
   1.00000000000000     
    40.0000000000000000    0.0000000000000000    0.0000000000000000
     0.0000000000000000   40.0000000000000000    0.0000000000000000
     0.0000000000000000    0.0000000000000000   40.0000000000000000
   C    F    O    H 
     8     1     1     7
Selective dynamics
Direct
  0.5101055617050889  0.5234003509185143  0.5000050548155812   T   T   T
  0.5448859006584712  0.5239953407910889  0.5000088079368794   T   T   T
  0.5624197191843621  0.4937353262968145  0.5000057025761748   T   T   T
  0.5458351233720009  0.4629143224673342  0.5000023710935366   T   T   T
  0.5111468802860557  0.4623658599436169  0.4999994568014401   T   T   T
  0.4916192186809667  0.4925843319953813  0.4999991465859921   T   T   T
  0.4557165452882543  0.4908921285343411  0.4999943588255249   T   T   T
  0.4360000588637831  0.5235075564559821  0.4999940443230386   T   T   T
  0.5972821187245856  0.4943068435175562  0.5000057131198119   T   T   T
  0.4395623973082792  0.4631178811290795  0.4999929045587663   T   T   T
  0.4413936834787862  0.5391931352121944  0.5220964115214599   T   T   T
  0.4414012664110629  0.5391986648301597  0.4778974299251502   T   T   T
  0.4092411817423312  0.5175096234757390  0.4999895779044152   T   T   T
  0.4976367460145212  0.4386905119131868  0.4999959170911552   T   T   T
  0.5603638800742772  0.4397930414184188  0.5000008233126110   T   T   T
  0.5585977139294442  0.5475881867768422  0.5000104653454827   T   T   T
  0.4967920042777223  0.5472068943237787  0.5000028142629702   T   T   T
 
  0.00000000E+00  0.00000000E+00  0.00000000E+00
  0.00000000E+00  0.00000000E+00  0.00000000E+00
  0.00000000E+00  0.00000000E+00  0.00000000E+00
  0.00000000E+00  0.00000000E+00  0.00000000E+00
  0.00000000E+00  0.00000000E+00  0.00000000E+00
  0.00000000E+00  0.00000000E+00  0.00000000E+00
  0.00000000E+00  0.00000000E+00  0.00000000E+00
  0.00000000E+00  0.00000000E+00  0.00000000E+00
  0.00000000E+00  0.00000000E+00  0.00000000E+00
  0.00000000E+00  0.00000000E+00  0.00000000E+00
  0.00000000E+00  0.00000000E+00  0.00000000E+00
  0.00000000E+00  0.00000000E+00  0.00000000E+00
  0.00000000E+00  0.00000000E+00  0.00000000E+00
  0.00000000E+00  0.00000000E+00  0.00000000E+00
  0.00000000E+00  0.00000000E+00  0.00000000E+00
  0.00000000E+00  0.00000000E+00  0.00000000E+00
  0.00000000E+00  0.00000000E+00  0.00000000E+00
