C N O H                                 
   1.00000000000000     
    25.0000000000000000    0.0000000000000000    0.0000000000000000
     0.0000000000000000   25.0000000000000000    0.0000000000000000
     0.0000000000000000    0.0000000000000000   25.0000000000000000
   C    N    O    H 
     9     1     2    16
Selective dynamics
Direct
  0.5143071345826269  0.5286172130214828  0.4568113633196491   T   T   T
  0.5396139887707583  0.4742679436218300  0.4412065335234182   T   T   T
  0.5498353589683160  0.4394409466049017  0.4892331182364741   T   T   T
  0.4999940477454866  0.4274431974440632  0.5207942077630300   T   T   T
  0.4722292682931973  0.4790383219115703  0.5409651594664677   T   T   T
  0.5569704078882055  0.5660733290929583  0.4807914499942037   T   T   T
  0.4898606920261471  0.5542999022500786  0.4068104149705745   T   T   T
  0.5026127329528974  0.5022376026328332  0.5893342771608550   T   T   T
  0.4145856361048151  0.4656959641117687  0.5570734097120056   T   T   T
  0.4701876089635131  0.5200838461091029  0.4968996462496999   T   T   T
  0.4385623405483184  0.5601406546678617  0.5046781571101483   T   T   T
  0.5945400966246175  0.4228125013364389  0.5017273273092285   T   T   T
  0.5768687488665543  0.4815209379342985  0.4191629838112033   T   T   T
  0.5116383759402533  0.4526173631683315  0.4148987728907746   T   T   T
  0.5092394645529236  0.4017190806886869  0.5551178886987220   T   T   T
  0.4722988519636404  0.4059343360206646  0.4940743170634256   T   T   T
  0.5378587742857358  0.6021054100633331  0.4970509670504461   T   T   T
  0.5801593270480512  0.5466828476165662  0.5126051336286601   T   T   T
  0.5849592300192982  0.5781223183383815  0.4491360430808355   T   T   T
  0.4742268033071010  0.5942520251835579  0.4157736930783401   T   T   T
  0.4573289769157703  0.5294788424943470  0.3908163735376982   T   T   T
  0.5210788896349393  0.5579603184647752  0.3761253883807938   T   T   T
  0.4865039478597789  0.5417990221302689  0.5995533883334303   T   T   T
  0.5456690741189840  0.5059633509162146  0.5816865473255414   T   T   T
  0.4972776768616289  0.4755634378377012  0.6238460529745408   T   T   T
  0.3946931280088890  0.5006718514334400  0.5744728156031454   T   T   T
  0.3914986593987001  0.4518891303203648  0.5223250433852463   T   T   T
  0.4154007577488376  0.4335693045841961  0.5870315263414423   T   T   T
 
  0.00000000E+00  0.00000000E+00  0.00000000E+00
  0.00000000E+00  0.00000000E+00  0.00000000E+00
  0.00000000E+00  0.00000000E+00  0.00000000E+00
  0.00000000E+00  0.00000000E+00  0.00000000E+00
  0.00000000E+00  0.00000000E+00  0.00000000E+00
  0.00000000E+00  0.00000000E+00  0.00000000E+00
  0.00000000E+00  0.00000000E+00  0.00000000E+00
  0.00000000E+00  0.00000000E+00  0.00000000E+00
  0.00000000E+00  0.00000000E+00  0.00000000E+00
  0.00000000E+00  0.00000000E+00  0.00000000E+00
  0.00000000E+00  0.00000000E+00  0.00000000E+00
  0.00000000E+00  0.00000000E+00  0.00000000E+00
  0.00000000E+00  0.00000000E+00  0.00000000E+00
  0.00000000E+00  0.00000000E+00  0.00000000E+00
  0.00000000E+00  0.00000000E+00  0.00000000E+00
  0.00000000E+00  0.00000000E+00  0.00000000E+00
  0.00000000E+00  0.00000000E+00  0.00000000E+00
  0.00000000E+00  0.00000000E+00  0.00000000E+00
  0.00000000E+00  0.00000000E+00  0.00000000E+00
  0.00000000E+00  0.00000000E+00  0.00000000E+00
  0.00000000E+00  0.00000000E+00  0.00000000E+00
  0.00000000E+00  0.00000000E+00  0.00000000E+00
  0.00000000E+00  0.00000000E+00  0.00000000E+00
  0.00000000E+00  0.00000000E+00  0.00000000E+00
  0.00000000E+00  0.00000000E+00  0.00000000E+00
  0.00000000E+00  0.00000000E+00  0.00000000E+00
  0.00000000E+00  0.00000000E+00  0.00000000E+00
  0.00000000E+00  0.00000000E+00  0.00000000E+00
