C H                                     
   1.00000000000000     
    40.0000000000000000    0.0000000000000000    0.0000000000000000
     0.0000000000000000   40.0000000000000000    0.0000000000000000
     0.0000000000000000    0.0000000000000000   40.0000000000000000
   C    H 
     8    10
Selective dynamics
Direct
  0.4448039213700126  0.4826184212131645  0.5000008961468367   T   T   T
  0.4751145271911164  0.4654615978661717  0.5000003704904188   T   T   T
  0.5056635850471735  0.4823832395109587  0.4999997848332214   T   T   T
  0.5380047012003285  0.4632676684313125  0.4999986676494927   T   T   T
  0.5056635850471735  0.5176167604890410  0.5000002151667786   T   T   T
  0.5380047012003285  0.5367313315686900  0.5000003323505098   T   T   T
  0.4751145271911164  0.5345384021338282  0.5000006295095787   T   T   T
  0.4448039213700126  0.5173815787868353  0.5000011038531582   T   T   T
  0.5531968983268096  0.4693790843625777  0.5219268732954372   T   T   T
  0.5334719035791474  0.4363757846461271  0.5000008832454910   T   T   T
  0.5531931130324490  0.4693759569081791  0.4780671524465748   T   T   T
  0.5531958983268122  0.5306209156374222  0.4780711267045606   T   T   T
  0.5334719035791474  0.5636242153538727  0.4999981167545045   T   T   T
  0.5531941130324536  0.5306240430918208  0.5219318475534276   T   T   T
  0.4214192280877828  0.5311244927394942  0.5000011064229852   T   T   T
  0.4751331221651637  0.5617032661164197  0.5000010192684741   T   T   T
  0.4751331221651637  0.4382967338835803  0.4999999807315234   T   T   T
  0.4214192280877828  0.4688755072605059  0.5000008935770097   T   T   T
 
  0.00000000E+00  0.00000000E+00  0.00000000E+00
  0.00000000E+00  0.00000000E+00  0.00000000E+00
  0.00000000E+00  0.00000000E+00  0.00000000E+00
  0.00000000E+00  0.00000000E+00  0.00000000E+00
  0.00000000E+00  0.00000000E+00  0.00000000E+00
  0.00000000E+00  0.00000000E+00  0.00000000E+00
  0.00000000E+00  0.00000000E+00  0.00000000E+00
  0.00000000E+00  0.00000000E+00  0.00000000E+00
  0.00000000E+00  0.00000000E+00  0.00000000E+00
  0.00000000E+00  0.00000000E+00  0.00000000E+00
  0.00000000E+00  0.00000000E+00  0.00000000E+00
  0.00000000E+00  0.00000000E+00  0.00000000E+00
  0.00000000E+00  0.00000000E+00  0.00000000E+00
  0.00000000E+00  0.00000000E+00  0.00000000E+00
  0.00000000E+00  0.00000000E+00  0.00000000E+00
  0.00000000E+00  0.00000000E+00  0.00000000E+00
  0.00000000E+00  0.00000000E+00  0.00000000E+00
  0.00000000E+00  0.00000000E+00  0.00000000E+00
