C N O H                                 
   1.00000000000000     
    40.0000000000000000    0.0000000000000000    0.0000000000000000
     0.0000000000000000   40.0000000000000000    0.0000000000000000
     0.0000000000000000    0.0000000000000000   40.0000000000000000
   C    N    O    H 
     8     1     3     7
Selective dynamics
Direct
  0.5011378416778740  0.4632950006170446  0.4999865126612022   T   T   T
  0.4666686530438469  0.4633332193670512  0.5000068887600193   T   T   T
  0.4489654175152253  0.4940841883080154  0.5000331207932973   T   T   T
  0.4671482482475113  0.5245103797908186  0.5000362695060616   T   T   T
  0.5017245609562764  0.5239907242259605  0.5000165645474723   T   T   T
  0.5199672470103707  0.4934719062414246  0.4999879898719541   T   T   T
  0.5564400619157013  0.4918464746410152  0.4999648377568278   T   T   T
  0.5762396190303534  0.5243599615646843  0.4999415667559433   T   T   T
  0.4137824264311050  0.4942927800011176  0.5000581883717388   T   T   T
  0.5719287153240629  0.4645548705670137  0.4999584950719722   T   T   T
  0.3983625353657274  0.5223684943287310  0.5000769392752389   T   T   T
  0.3980602609236286  0.4663764516229634  0.5000608740520249   T   T   T
  0.5705356682360758  0.5396929112976565  0.5220714141211005   T   T   T
  0.6029637476397056  0.5184011047053332  0.4998780787474146   T   T   T
  0.5704352059965743  0.5397403994593688  0.4778721932628756   T   T   T
  0.5150513917594139  0.5477921183717740  0.5000218062256963   T   T   T
  0.4532503390115750  0.5479115217458528  0.5000611774877370   T   T   T
  0.4523664080436802  0.4401795320468125  0.5000038705977445   T   T   T
  0.5149706518712946  0.4398019610973947  0.4999622121337026   T   T   T
 
  0.00000000E+00  0.00000000E+00  0.00000000E+00
  0.00000000E+00  0.00000000E+00  0.00000000E+00
  0.00000000E+00  0.00000000E+00  0.00000000E+00
  0.00000000E+00  0.00000000E+00  0.00000000E+00
  0.00000000E+00  0.00000000E+00  0.00000000E+00
  0.00000000E+00  0.00000000E+00  0.00000000E+00
  0.00000000E+00  0.00000000E+00  0.00000000E+00
  0.00000000E+00  0.00000000E+00  0.00000000E+00
  0.00000000E+00  0.00000000E+00  0.00000000E+00
  0.00000000E+00  0.00000000E+00  0.00000000E+00
  0.00000000E+00  0.00000000E+00  0.00000000E+00
  0.00000000E+00  0.00000000E+00  0.00000000E+00
  0.00000000E+00  0.00000000E+00  0.00000000E+00
  0.00000000E+00  0.00000000E+00  0.00000000E+00
  0.00000000E+00  0.00000000E+00  0.00000000E+00
  0.00000000E+00  0.00000000E+00  0.00000000E+00
  0.00000000E+00  0.00000000E+00  0.00000000E+00
  0.00000000E+00  0.00000000E+00  0.00000000E+00
  0.00000000E+00  0.00000000E+00  0.00000000E+00
