!PBE0 def2-SV(p) Opt Freq d3 TightSCF SlowConv RIJCOSX defgrid2
 
%pal
nprocs 4
end
 
%scf
MaxIter 1500
end
 
%maxcore 3000
 

 
* xyz 1 2
C    -0.3495620   -1.0725610    0.0000184 
C     1.0141664   -0.6903072    0.0000022 
C     1.0141324    0.6903556   -0.0000026 
C    -0.3496104    1.0725424    0.0000130 
O    -1.1324716   -0.0000301    0.0000252 
H    -0.8136617    2.0481437    0.0000161 
H     1.8557503    1.3575523   -0.0000147 
H     1.8558156   -1.3574646   -0.0000085 
H    -0.8135629   -2.0481863    0.0000256
*
