C O S H                                 
   1.00000000000000     
    40.0000000000000000    0.0000000000000000    0.0000000000000000
     0.0000000000000000   40.0000000000000000    0.0000000000000000
     0.0000000000000000    0.0000000000000000   40.0000000000000000
   C    O    S    H 
    14     2     2    14
Selective dynamics
Direct
  0.5486592701183595  0.5326926429796423  0.5059681440055688   T   T   T
  0.5443892496306403  0.5071261970331318  0.4821869226676165   T   T   T
  0.5703471262364384  0.4856845053357142  0.4753863013870121   T   T   T
  0.6009880720575900  0.4890878947024272  0.4923378407982714   T   T   T
  0.6055838849886968  0.5149964877161799  0.5156746677517681   T   T   T
  0.5795819944655604  0.5367666956289165  0.5221824944961909   T   T   T
  0.6555753058296376  0.4664508543672824  0.5024326880171269   T   T   T
  0.4513508824216498  0.5327014690975631  0.4939946747427823   T   T   T
  0.4556236464225908  0.5071386303154803  0.5177748639621984   T   T   T
  0.4296618220749109  0.4857055048621675  0.5246015510027989   T   T   T
  0.3990120233658190  0.4891086786043227  0.5076694389751232   T   T   T
  0.3944065243320390  0.5150263206417074  0.4843398454164112   T   T   T
  0.4204154063061294  0.5367901594529413  0.4778163947852118   T   T   T
  0.3444185799805760  0.4664752174549882  0.4975961687568463   T   T   T
  0.6241639931541242  0.4661003275220164  0.4847678226703895   T   T   T
  0.3758357984940047  0.4661251049847111  0.5152490379532312   T   T   T
  0.5160372240295983  0.5583967672413761  0.5194618409731383   T   T   T
  0.4839806952518088  0.5583929335214929  0.4804665483681209   T   T   T
  0.5830284462162816  0.5568143884696481  0.5400803127944011   T   T   T
  0.6291272857638975  0.5181672970646435  0.5285787069644237   T   T   T
  0.6512793725959601  0.4638529073094316  0.5292332460433415   T   T   T
  0.6691621017196342  0.4894645441730946  0.4970616115377701   T   T   T
  0.6692436671237060  0.4450054452222368  0.4929555185617201   T   T   T
  0.5673731184514450  0.4654126265703044  0.4576851954159996   T   T   T
  0.5205942496597756  0.5038035766026098  0.4697102231007705   T   T   T
  0.4169522092055062  0.5568464502177775  0.4599269002274392   T   T   T
  0.3708530773581030  0.5182083300065901  0.4714656159070267   T   T   T
  0.3487032785611983  0.4638811151286880  0.4707923144014959   T   T   T
  0.3307586303136044  0.4450271730525256  0.5070779594715163   T   T   T
  0.3308311304192372  0.4894877315329015  0.5029699463911450   T   T   T
  0.4326420904552584  0.4654470186679665  0.5423151037460857   T   T   T
  0.4794208429962304  0.5038150045195845  0.5302370987070441   T   T   T
 
  0.00000000E+00  0.00000000E+00  0.00000000E+00
  0.00000000E+00  0.00000000E+00  0.00000000E+00
  0.00000000E+00  0.00000000E+00  0.00000000E+00
  0.00000000E+00  0.00000000E+00  0.00000000E+00
  0.00000000E+00  0.00000000E+00  0.00000000E+00
  0.00000000E+00  0.00000000E+00  0.00000000E+00
  0.00000000E+00  0.00000000E+00  0.00000000E+00
  0.00000000E+00  0.00000000E+00  0.00000000E+00
  0.00000000E+00  0.00000000E+00  0.00000000E+00
  0.00000000E+00  0.00000000E+00  0.00000000E+00
  0.00000000E+00  0.00000000E+00  0.00000000E+00
  0.00000000E+00  0.00000000E+00  0.00000000E+00
  0.00000000E+00  0.00000000E+00  0.00000000E+00
  0.00000000E+00  0.00000000E+00  0.00000000E+00
  0.00000000E+00  0.00000000E+00  0.00000000E+00
  0.00000000E+00  0.00000000E+00  0.00000000E+00
  0.00000000E+00  0.00000000E+00  0.00000000E+00
  0.00000000E+00  0.00000000E+00  0.00000000E+00
  0.00000000E+00  0.00000000E+00  0.00000000E+00
  0.00000000E+00  0.00000000E+00  0.00000000E+00
  0.00000000E+00  0.00000000E+00  0.00000000E+00
  0.00000000E+00  0.00000000E+00  0.00000000E+00
  0.00000000E+00  0.00000000E+00  0.00000000E+00
  0.00000000E+00  0.00000000E+00  0.00000000E+00
  0.00000000E+00  0.00000000E+00  0.00000000E+00
  0.00000000E+00  0.00000000E+00  0.00000000E+00
  0.00000000E+00  0.00000000E+00  0.00000000E+00
  0.00000000E+00  0.00000000E+00  0.00000000E+00
  0.00000000E+00  0.00000000E+00  0.00000000E+00
  0.00000000E+00  0.00000000E+00  0.00000000E+00
  0.00000000E+00  0.00000000E+00  0.00000000E+00
  0.00000000E+00  0.00000000E+00  0.00000000E+00
