C Cl O H                                
   1.00000000000000     
    40.0000000000000000    0.0000000000000000    0.0000000000000000
     0.0000000000000000   40.0000000000000000    0.0000000000000000
     0.0000000000000000    0.0000000000000000   40.0000000000000000
   C    Cl   O    H 
     8     1     1     7
Selective dynamics
Direct
  0.5096570788488655  0.5232825294238894  0.5000110413861765   T   T   T
  0.5443492774230849  0.5238104601069463  0.5000063168383998   T   T   T
  0.5623802074261210  0.4935515649696432  0.4999960622899549   T   T   T
  0.5451430061900076  0.4627945881350040  0.4999967530254064   T   T   T
  0.5105343128944305  0.4623708791132246  0.5000043598615406   T   T   T
  0.4910501320539539  0.4925848065773862  0.5000042024488099   T   T   T
  0.4551357392422719  0.4910257009747382  0.5000027738671428   T   T   T
  0.4354816520102416  0.5237307048008297  0.4999876373572462   T   T   T
  0.6061763077599339  0.4941323990700718  0.4999871797913950   T   T   T
  0.4389168593739419  0.4633886550402382  0.5000135184653848   T   T   T
  0.4409453702738798  0.5393554297244547  0.5220870759663695   T   T   T
  0.4409739386463226  0.5393512196088125  0.4778943109371888   T   T   T
  0.4087215580063817  0.5177896763730282  0.4999736920427206   T   T   T
  0.4970099026687764  0.4386931868586427  0.5000051505438636   T   T   T
  0.5592908567133141  0.4394457314379064  0.4999925154186109   T   T   T
  0.5578013349861504  0.5475484322246654  0.5000154560945379   T   T   T
  0.4964314654823464  0.5471460355605557  0.5000229536652285   T   T   T
 
  0.00000000E+00  0.00000000E+00  0.00000000E+00
  0.00000000E+00  0.00000000E+00  0.00000000E+00
  0.00000000E+00  0.00000000E+00  0.00000000E+00
  0.00000000E+00  0.00000000E+00  0.00000000E+00
  0.00000000E+00  0.00000000E+00  0.00000000E+00
  0.00000000E+00  0.00000000E+00  0.00000000E+00
  0.00000000E+00  0.00000000E+00  0.00000000E+00
  0.00000000E+00  0.00000000E+00  0.00000000E+00
  0.00000000E+00  0.00000000E+00  0.00000000E+00
  0.00000000E+00  0.00000000E+00  0.00000000E+00
  0.00000000E+00  0.00000000E+00  0.00000000E+00
  0.00000000E+00  0.00000000E+00  0.00000000E+00
  0.00000000E+00  0.00000000E+00  0.00000000E+00
  0.00000000E+00  0.00000000E+00  0.00000000E+00
  0.00000000E+00  0.00000000E+00  0.00000000E+00
  0.00000000E+00  0.00000000E+00  0.00000000E+00
  0.00000000E+00  0.00000000E+00  0.00000000E+00
