C O H                                   
   1.00000000000000     
    40.0000000000000000    0.0000000000000000    0.0000000000000000
     0.0000000000000000   40.0000000000000000    0.0000000000000000
     0.0000000000000000    0.0000000000000000   40.0000000000000000
   C    O    H 
     8     1     6
Selective dynamics
Direct
  0.5168955044191855  0.4606761260393076  0.5000000000000000   T   T   T
  0.5478435015418887  0.4782879056697861  0.5000000000000000   T   T   T
  0.5495983868619569  0.5134716464561879  0.5000000000000000   T   T   T
  0.5207756388598922  0.5327936198263067  0.5000000000000000   T   T   T
  0.4893875711528622  0.5158573283458300  0.5000000000000000   T   T   T
  0.4889507497833858  0.4803370224444589  0.5000000000000000   T   T   T
  0.4367064554737927  0.4965563645180724  0.5000000000000000   T   T   T
  0.4558563895922585  0.5261714544457501  0.5000000000000000   T   T   T
  0.4558048071819514  0.4691091567500556  0.5000000000000000   T   T   T
  0.4457817654219854  0.5513671466926632  0.5000000000000000   T   T   T
  0.4098493672235929  0.4925730227118162  0.5000009999999975   T   T   T
  0.5217587902868264  0.5600059725098792  0.5000000000000000   T   T   T
  0.5740190714414380  0.5254941346081886  0.5000000000000000   T   T   T
  0.5709106059693954  0.4637974603203998  0.5000000000000000   T   T   T
  0.5158603947895903  0.4335006386613003  0.5000000000000000   T   T   T
 
  0.00000000E+00  0.00000000E+00  0.00000000E+00
  0.00000000E+00  0.00000000E+00  0.00000000E+00
  0.00000000E+00  0.00000000E+00  0.00000000E+00
  0.00000000E+00  0.00000000E+00  0.00000000E+00
  0.00000000E+00  0.00000000E+00  0.00000000E+00
  0.00000000E+00  0.00000000E+00  0.00000000E+00
  0.00000000E+00  0.00000000E+00  0.00000000E+00
  0.00000000E+00  0.00000000E+00  0.00000000E+00
  0.00000000E+00  0.00000000E+00  0.00000000E+00
  0.00000000E+00  0.00000000E+00  0.00000000E+00
  0.00000000E+00  0.00000000E+00  0.00000000E+00
  0.00000000E+00  0.00000000E+00  0.00000000E+00
  0.00000000E+00  0.00000000E+00  0.00000000E+00
  0.00000000E+00  0.00000000E+00  0.00000000E+00
  0.00000000E+00  0.00000000E+00  0.00000000E+00
