C N H                                   
   1.00000000000000     
    40.0000000000000000    0.0000000000000000    0.0000000000000000
     0.0000000000000000   40.0000000000000000    0.0000000000000000
     0.0000000000000000    0.0000000000000000   40.0000000000000000
   C    N    H 
     4     1     9
Selective dynamics
Direct
  0.5127014952642668  0.4697987240820396  0.4996448142405612   T   T   T
  0.5126943475981633  0.5302053675540108  0.4997152245578178   T   T   T
  0.4758395456421454  0.5194457248667064  0.5002688675120837   T   T   T
  0.4758503443288049  0.4805454204788120  0.5003502064137493   T   T   T
  0.5316969249202259  0.5000022133584707  0.5009975102098565   T   T   T
  0.5572678370193387  0.5000053620930629  0.5020568102849907   T   T   T
  0.4635997138753041  0.4706592276246795  0.5227496513785823   T   T   T
  0.4625721997682959  0.4704415468461676  0.4786530871759922   T   T   T
  0.4634540605626896  0.5294249193947920  0.5225490053394140   T   T   T
  0.4626897639893670  0.5294503151531060  0.4784469147530857   T   T   T
  0.5202485696038082  0.5441600854877109  0.4769242450263818   T   T   T
  0.5205608382524787  0.5466862333224825  0.5205221188647968   T   T   T
  0.5201924998198777  0.4559492784233612  0.4767672013917448   T   T   T
  0.5206328593552101  0.4532285813146189  0.5203533428509388   T   T   T
 
  0.00000000E+00  0.00000000E+00  0.00000000E+00
  0.00000000E+00  0.00000000E+00  0.00000000E+00
  0.00000000E+00  0.00000000E+00  0.00000000E+00
  0.00000000E+00  0.00000000E+00  0.00000000E+00
  0.00000000E+00  0.00000000E+00  0.00000000E+00
  0.00000000E+00  0.00000000E+00  0.00000000E+00
  0.00000000E+00  0.00000000E+00  0.00000000E+00
  0.00000000E+00  0.00000000E+00  0.00000000E+00
  0.00000000E+00  0.00000000E+00  0.00000000E+00
  0.00000000E+00  0.00000000E+00  0.00000000E+00
  0.00000000E+00  0.00000000E+00  0.00000000E+00
  0.00000000E+00  0.00000000E+00  0.00000000E+00
  0.00000000E+00  0.00000000E+00  0.00000000E+00
  0.00000000E+00  0.00000000E+00  0.00000000E+00
