C N H                                   
   1.00000000000000     
    40.0000000000000000    0.0000000000000000    0.0000000000000000
     0.0000000000000000   40.0000000000000000    0.0000000000000000
     0.0000000000000000    0.0000000000000000   40.0000000000000000
   C    N    H 
     7     1     9
Selective dynamics
Direct
  0.4773863823856899  0.5300259948871718  0.4994862146467760   T   T   T
  0.5120954844126130  0.5298019763294018  0.4996402345905185   T   T   T
  0.5302755366903357  0.5000068799192346  0.4995965851627587   T   T   T
  0.5678432091728612  0.4999955101740446  0.4989082355402065   T   T   T
  0.5120962745905147  0.4702075830235378  0.4996310651675612   T   T   T
  0.4773914010324643  0.4699816973031009  0.4994743058832019   T   T   T
  0.4593975322343894  0.5000045179004369  0.4993201932478110   T   T   T
  0.4246525103196311  0.4999986906148109  0.4975161466204647   T   T   T
  0.5780278985281835  0.5223129444797129  0.5108702092812317   T   T   T
  0.5774184879018761  0.4995008680583402  0.4732653264030277   T   T   T
  0.5780414112709498  0.4781532457709582  0.5117131738914790   T   T   T
  0.4133324474324461  0.4790871313496464  0.5058765871940266   T   T   T
  0.4133248104478700  0.5209058011585749  0.5058761117158077   T   T   T
  0.4639827305150252  0.4463735791332457  0.4995293825270604   T   T   T
  0.5253794207227023  0.4465171392065648  0.4998672276568145   T   T   T
  0.5253776927909839  0.5534925595577779  0.4998817305020854   T   T   T
  0.4639767695514356  0.5536338811334467  0.4995472699691543   T   T   T
 
  0.00000000E+00  0.00000000E+00  0.00000000E+00
  0.00000000E+00  0.00000000E+00  0.00000000E+00
  0.00000000E+00  0.00000000E+00  0.00000000E+00
  0.00000000E+00  0.00000000E+00  0.00000000E+00
  0.00000000E+00  0.00000000E+00  0.00000000E+00
  0.00000000E+00  0.00000000E+00  0.00000000E+00
  0.00000000E+00  0.00000000E+00  0.00000000E+00
  0.00000000E+00  0.00000000E+00  0.00000000E+00
  0.00000000E+00  0.00000000E+00  0.00000000E+00
  0.00000000E+00  0.00000000E+00  0.00000000E+00
  0.00000000E+00  0.00000000E+00  0.00000000E+00
  0.00000000E+00  0.00000000E+00  0.00000000E+00
  0.00000000E+00  0.00000000E+00  0.00000000E+00
  0.00000000E+00  0.00000000E+00  0.00000000E+00
  0.00000000E+00  0.00000000E+00  0.00000000E+00
  0.00000000E+00  0.00000000E+00  0.00000000E+00
  0.00000000E+00  0.00000000E+00  0.00000000E+00
