C O H                                   
   1.00000000000000     
    40.0000000000000000    0.0000000000000000    0.0000000000000000
     0.0000000000000000   40.0000000000000000    0.0000000000000000
     0.0000000000000000    0.0000000000000000   40.0000000000000000
   C    O    H 
     8     1     8
Selective dynamics
Direct
  0.5103761506472182  0.4765794267033907  0.4999943471738819   T   T   T
  0.5450933600213929  0.4759048101553081  0.5000004592014037   T   T   T
  0.5640271602757758  0.5057076863179123  0.5000030334994355   T   T   T
  0.5465407586042557  0.5364306273768983  0.5000011438013134   T   T   T
  0.5119221218667728  0.5374855838727187  0.4999940175681135   T   T   T
  0.4920839241791520  0.5074970161814712  0.4999955620735644   T   T   T
  0.4561897711558676  0.5094539005949704  0.4999958702035174   T   T   T
  0.4361422222683944  0.4769898649470098  0.5000040363882539   T   T   T
  0.4401663394433664  0.5372887639027260  0.4999941424969054   T   T   T
  0.4094489030417144  0.4832813433099443  0.5000050033275859   T   T   T
  0.4413979499783399  0.4612652681385004  0.5220955539108179   T   T   T
  0.4413932635617963  0.4612556757285465  0.4779182933613690   T   T   T
  0.4985582118706960  0.5612634903555669  0.4999925867554000   T   T   T
  0.5606253880354292  0.5598931224857921  0.5000051771274576   T   T   T
  0.5912845542807414  0.5050396377365376  0.5000117416803421   T   T   T
  0.5579578533875625  0.4517678073999266  0.4999991267077532   T   T   T
  0.4967930673815575  0.4528959747928161  0.4999889047228948   T   T   T
 
  0.00000000E+00  0.00000000E+00  0.00000000E+00
  0.00000000E+00  0.00000000E+00  0.00000000E+00
  0.00000000E+00  0.00000000E+00  0.00000000E+00
  0.00000000E+00  0.00000000E+00  0.00000000E+00
  0.00000000E+00  0.00000000E+00  0.00000000E+00
  0.00000000E+00  0.00000000E+00  0.00000000E+00
  0.00000000E+00  0.00000000E+00  0.00000000E+00
  0.00000000E+00  0.00000000E+00  0.00000000E+00
  0.00000000E+00  0.00000000E+00  0.00000000E+00
  0.00000000E+00  0.00000000E+00  0.00000000E+00
  0.00000000E+00  0.00000000E+00  0.00000000E+00
  0.00000000E+00  0.00000000E+00  0.00000000E+00
  0.00000000E+00  0.00000000E+00  0.00000000E+00
  0.00000000E+00  0.00000000E+00  0.00000000E+00
  0.00000000E+00  0.00000000E+00  0.00000000E+00
  0.00000000E+00  0.00000000E+00  0.00000000E+00
  0.00000000E+00  0.00000000E+00  0.00000000E+00
