C O H                                   
   1.00000000000000     
    40.0000000000000000    0.0000000000000000    0.0000000000000000
     0.0000000000000000   40.0000000000000000    0.0000000000000000
     0.0000000000000000    0.0000000000000000   40.0000000000000000
   C    O    H 
    13     1    10
Selective dynamics
Direct
  0.4387012505503411  0.5298304952388019  0.5061094770438911   T   T   T
  0.4080434341451661  0.5139324113777451  0.5031256755470929   T   T   T
  0.4680060964020903  0.5138721068626619  0.4955925536828384   T   T   T
  0.4659877279774869  0.4819460574279007  0.4814583024690274   T   T   T
  0.4351564371374863  0.4662843418738840  0.4779821702625076   T   T   T
  0.4062202432833334  0.4821216001351981  0.4890105721652196   T   T   T
  0.5001496974079329  0.5325437037242071  0.4981066817447931   T   T   T
  0.5321228430535295  0.5139923387033136  0.5027099907399042   T   T   T
  0.5616207060437934  0.5284438062683310  0.4906575510728037   T   T   T
  0.5921215558904080  0.5126884439679659  0.4955118472831863   T   T   T
  0.5936157166157261  0.4826205316645323  0.5130647470987851   T   T   T
  0.5644877320283547  0.4683450734877082  0.5256108797072740   T   T   T
  0.5338124162845549  0.4838009302437727  0.5202778115092838   T   T   T
  0.5002781529486755  0.5632594075115332  0.4964240224196839   T   T   T
  0.4337186505425145  0.4417143577559812  0.4666515636893503   T   T   T
  0.3822325065373225  0.4697560504279933  0.4865240376359537   T   T   T
  0.4405629684406822  0.5546954662997770  0.5166962819145032   T   T   T
  0.3854861266660093  0.5262708795759713  0.5116974788436530   T   T   T
  0.4884494100749289  0.4696706361351028  0.4725833588196245   T   T   T
  0.5112203209279954  0.4727852240969224  0.5303906103606646   T   T   T
  0.6174823404783971  0.4704034358066121  0.5170216718722059   T   T   T
  0.5656527976239988  0.4451719719567675  0.5396068146909015   T   T   T
  0.5600466833795781  0.5520281189427887  0.4774231967128043   T   T   T
  0.6148261855597028  0.5238246105145161  0.4857627027140480   T   T   T
 
  0.00000000E+00  0.00000000E+00  0.00000000E+00
  0.00000000E+00  0.00000000E+00  0.00000000E+00
  0.00000000E+00  0.00000000E+00  0.00000000E+00
  0.00000000E+00  0.00000000E+00  0.00000000E+00
  0.00000000E+00  0.00000000E+00  0.00000000E+00
  0.00000000E+00  0.00000000E+00  0.00000000E+00
  0.00000000E+00  0.00000000E+00  0.00000000E+00
  0.00000000E+00  0.00000000E+00  0.00000000E+00
  0.00000000E+00  0.00000000E+00  0.00000000E+00
  0.00000000E+00  0.00000000E+00  0.00000000E+00
  0.00000000E+00  0.00000000E+00  0.00000000E+00
  0.00000000E+00  0.00000000E+00  0.00000000E+00
  0.00000000E+00  0.00000000E+00  0.00000000E+00
  0.00000000E+00  0.00000000E+00  0.00000000E+00
  0.00000000E+00  0.00000000E+00  0.00000000E+00
  0.00000000E+00  0.00000000E+00  0.00000000E+00
  0.00000000E+00  0.00000000E+00  0.00000000E+00
  0.00000000E+00  0.00000000E+00  0.00000000E+00
  0.00000000E+00  0.00000000E+00  0.00000000E+00
  0.00000000E+00  0.00000000E+00  0.00000000E+00
  0.00000000E+00  0.00000000E+00  0.00000000E+00
  0.00000000E+00  0.00000000E+00  0.00000000E+00
  0.00000000E+00  0.00000000E+00  0.00000000E+00
  0.00000000E+00  0.00000000E+00  0.00000000E+00
