C Cl O H                                
   1.00000000000000     
    40.0000000000000000    0.0000000000000000    0.0000000000000000
     0.0000000000000000   40.0000000000000000    0.0000000000000000
     0.0000000000000000    0.0000000000000000   40.0000000000000000
   C    Cl   O    H 
     8     1     1     7
Selective dynamics
Direct
  0.5096630167584739  0.5233232721736569  0.5000149043147200   T   T   T
  0.5443615457272507  0.5238236730216480  0.5000061873775706   T   T   T
  0.5623610953365163  0.4935218534688219  0.4999955146410771   T   T   T
  0.5451870065248177  0.4627533281817450  0.4999956197088470   T   T   T
  0.5105399184426926  0.4623444473852146  0.5000022793894174   T   T   T
  0.4910514735767054  0.4925868219525899  0.5000065311869760   T   T   T
  0.4551559148928072  0.4911693955125099  0.5000051401654376   T   T   T
  0.4354276982396188  0.5237412279158485  0.4999886455933518   T   T   T
  0.6061697610145987  0.4941012636210250  0.4999848670019590   T   T   T
  0.4389275955702047  0.4632945139810314  0.5000120088385380   T   T   T
  0.4408770630071017  0.5393550070063612  0.5220894285687754   T   T   T
  0.4409060723723249  0.5393488471465143  0.4778915855533442   T   T   T
  0.4086176122461583  0.5179277322191718  0.4999729680456022   T   T   T
  0.4972498371614011  0.4385301400850031  0.5000037272589013   T   T   T
  0.5592252649838076  0.4393459327201457  0.4999912039079474   T   T   T
  0.5577597619435121  0.5475960884538545  0.5000164621944635   T   T   T
  0.4965183622020320  0.5472384551548959  0.5000239262530406   T   T   T
 
  0.00000000E+00  0.00000000E+00  0.00000000E+00
  0.00000000E+00  0.00000000E+00  0.00000000E+00
  0.00000000E+00  0.00000000E+00  0.00000000E+00
  0.00000000E+00  0.00000000E+00  0.00000000E+00
  0.00000000E+00  0.00000000E+00  0.00000000E+00
  0.00000000E+00  0.00000000E+00  0.00000000E+00
  0.00000000E+00  0.00000000E+00  0.00000000E+00
  0.00000000E+00  0.00000000E+00  0.00000000E+00
  0.00000000E+00  0.00000000E+00  0.00000000E+00
  0.00000000E+00  0.00000000E+00  0.00000000E+00
  0.00000000E+00  0.00000000E+00  0.00000000E+00
  0.00000000E+00  0.00000000E+00  0.00000000E+00
  0.00000000E+00  0.00000000E+00  0.00000000E+00
  0.00000000E+00  0.00000000E+00  0.00000000E+00
  0.00000000E+00  0.00000000E+00  0.00000000E+00
  0.00000000E+00  0.00000000E+00  0.00000000E+00
  0.00000000E+00  0.00000000E+00  0.00000000E+00
