C F O H                                 
   1.00000000000000     
    40.0000000000000000    0.0000000000000000    0.0000000000000000
     0.0000000000000000   40.0000000000000000    0.0000000000000000
     0.0000000000000000    0.0000000000000000   40.0000000000000000
   C    F    O    H 
     8     1     1     7
Selective dynamics
Direct
  0.5101011911921504  0.5234209861816819  0.5000049568383126   T   T   T
  0.5448609400297277  0.5240249195467859  0.5000090697343558   T   T   T
  0.5622796078330410  0.4937067050106153  0.5000084602648572   T   T   T
  0.5458449975020597  0.4628609736279338  0.5000004079647478   T   T   T
  0.5111428668880157  0.4623280048816865  0.4999986603148090   T   T   T
  0.4916484852845455  0.4925761372261960  0.4999979539912360   T   T   T
  0.4557860435525115  0.4910630161079906  0.4999937000223940   T   T   T
  0.4360135224603011  0.5235564963374720  0.4999939481211639   T   T   T
  0.5971382886113524  0.4942760126601015  0.5000066111038423   T   T   T
  0.4396442248525779  0.4630433769228622  0.4999930204247434   T   T   T
  0.4413823030857012  0.5391954750089164  0.5220889170332212   T   T   T
  0.4413898119683819  0.5392001630666705  0.4779060254917343   T   T   T
  0.4092284260434041  0.5176642327136656  0.4999898360569525   T   T   T
  0.4978583983529739  0.4385374970902087  0.4999953469742277   T   T   T
  0.5603548643229163  0.4397617281081201  0.5000015757854165   T   T   T
  0.5585647447117233  0.5475942184808106  0.5000102616679017   T   T   T
  0.4967612833086164  0.5471900570283111  0.5000022482100884   T   T   T
 
  0.00000000E+00  0.00000000E+00  0.00000000E+00
  0.00000000E+00  0.00000000E+00  0.00000000E+00
  0.00000000E+00  0.00000000E+00  0.00000000E+00
  0.00000000E+00  0.00000000E+00  0.00000000E+00
  0.00000000E+00  0.00000000E+00  0.00000000E+00
  0.00000000E+00  0.00000000E+00  0.00000000E+00
  0.00000000E+00  0.00000000E+00  0.00000000E+00
  0.00000000E+00  0.00000000E+00  0.00000000E+00
  0.00000000E+00  0.00000000E+00  0.00000000E+00
  0.00000000E+00  0.00000000E+00  0.00000000E+00
  0.00000000E+00  0.00000000E+00  0.00000000E+00
  0.00000000E+00  0.00000000E+00  0.00000000E+00
  0.00000000E+00  0.00000000E+00  0.00000000E+00
  0.00000000E+00  0.00000000E+00  0.00000000E+00
  0.00000000E+00  0.00000000E+00  0.00000000E+00
  0.00000000E+00  0.00000000E+00  0.00000000E+00
  0.00000000E+00  0.00000000E+00  0.00000000E+00
