C H                                     
   1.00000000000000     
    40.0000000000000000    0.0000000000000000    0.0000000000000000
     0.0000000000000000   40.0000000000000000    0.0000000000000000
     0.0000000000000000    0.0000000000000000   40.0000000000000000
   C    H 
    10     8
Selective dynamics
Direct
  0.5608801664784273  0.4822840763195089  0.5000000000000000   T   T   T
  0.5608801664784273  0.5177149236804865  0.5000000000000000   T   T   T
  0.5310953636378363  0.5351358102357272  0.5000000000000000   T   T   T
  0.5000000000000000  0.5179750934830973  0.5000000000000000   T   T   T
  0.4689046363621637  0.5351358102357272  0.5000000000000000   T   T   T
  0.4391198335215727  0.5177159236804911  0.5000000000000000   T   T   T
  0.4391198335215727  0.4822850763195135  0.5000000000000000   T   T   T
  0.4689046363621637  0.4648641897642727  0.5000000000000000   T   T   T
  0.5000000000000000  0.4820249065169026  0.5000000000000000   T   T   T
  0.5310953636378363  0.4648641897642727  0.5000000000000000   T   T   T
  0.5310033317038472  0.4375635209271660  0.5000000000000000   T   T   T
  0.4689956682961553  0.4375645209271635  0.5000000000000000   T   T   T
  0.4154094948285911  0.4688065524854858  0.5000000000000000   T   T   T
  0.4154104948285957  0.5311944475145187  0.5000000000000000   T   T   T
  0.4689966682961528  0.5624364790728340  0.5000000000000000   T   T   T
  0.5310043317038446  0.5624354790728365  0.5000000000000000   T   T   T
  0.5845905051714090  0.5311934475145141  0.5000000000000000   T   T   T
  0.5845895051714044  0.4688055524854812  0.5000000000000000   T   T   T
 
  0.00000000E+00  0.00000000E+00  0.00000000E+00
  0.00000000E+00  0.00000000E+00  0.00000000E+00
  0.00000000E+00  0.00000000E+00  0.00000000E+00
  0.00000000E+00  0.00000000E+00  0.00000000E+00
  0.00000000E+00  0.00000000E+00  0.00000000E+00
  0.00000000E+00  0.00000000E+00  0.00000000E+00
  0.00000000E+00  0.00000000E+00  0.00000000E+00
  0.00000000E+00  0.00000000E+00  0.00000000E+00
  0.00000000E+00  0.00000000E+00  0.00000000E+00
  0.00000000E+00  0.00000000E+00  0.00000000E+00
  0.00000000E+00  0.00000000E+00  0.00000000E+00
  0.00000000E+00  0.00000000E+00  0.00000000E+00
  0.00000000E+00  0.00000000E+00  0.00000000E+00
  0.00000000E+00  0.00000000E+00  0.00000000E+00
  0.00000000E+00  0.00000000E+00  0.00000000E+00
  0.00000000E+00  0.00000000E+00  0.00000000E+00
  0.00000000E+00  0.00000000E+00  0.00000000E+00
  0.00000000E+00  0.00000000E+00  0.00000000E+00
