C F O H                                 
   1.00000000000000     
    40.0000000000000000    0.0000000000000000    0.0000000000000000
     0.0000000000000000   40.0000000000000000    0.0000000000000000
     0.0000000000000000    0.0000000000000000   40.0000000000000000
   C    F    O    H 
     8     1     1     7
Selective dynamics
Direct
  0.5100994176756544  0.5233328973965925  0.5000040971471265   T   T   T
  0.5449793291139429  0.5240778806971989  0.5000077746678002   T   T   T
  0.5619282947582391  0.4937224172487404  0.5000069335210284   T   T   T
  0.5457740867662082  0.4628594113324525  0.5000015399821294   T   T   T
  0.5109915107102552  0.4626850737638080  0.4999969013231080   T   T   T
  0.4926830352315363  0.4927558173924353  0.4999969734328005   T   T   T
  0.4553698950942291  0.4911556942728765  0.4999951849043143   T   T   T
  0.4356562432209401  0.5233457540429498  0.4999945865779054   T   T   T
  0.5961530145344298  0.4941589636207908  0.5000072708475116   T   T   T
  0.4408428472813100  0.4637924390265411  0.4999947677309962   T   T   T
  0.4417232695421234  0.5385345066174381  0.5221127341175418   T   T   T
  0.4417309208601168  0.5385404653775439  0.4778822003668992   T   T   T
  0.4088802227224875  0.5176616830091589  0.4999900263862074   T   T   T
  0.4974396146436106  0.4390372194482524  0.4999940788392649   T   T   T
  0.5602661500728559  0.4397917651600665  0.4999993575910082   T   T   T
  0.5588397111056480  0.5475288838426877  0.5000128503797612   T   T   T
  0.4966424366664057  0.5470191277504881  0.5000037221846085   T   T   T
 
  0.00000000E+00  0.00000000E+00  0.00000000E+00
  0.00000000E+00  0.00000000E+00  0.00000000E+00
  0.00000000E+00  0.00000000E+00  0.00000000E+00
  0.00000000E+00  0.00000000E+00  0.00000000E+00
  0.00000000E+00  0.00000000E+00  0.00000000E+00
  0.00000000E+00  0.00000000E+00  0.00000000E+00
  0.00000000E+00  0.00000000E+00  0.00000000E+00
  0.00000000E+00  0.00000000E+00  0.00000000E+00
  0.00000000E+00  0.00000000E+00  0.00000000E+00
  0.00000000E+00  0.00000000E+00  0.00000000E+00
  0.00000000E+00  0.00000000E+00  0.00000000E+00
  0.00000000E+00  0.00000000E+00  0.00000000E+00
  0.00000000E+00  0.00000000E+00  0.00000000E+00
  0.00000000E+00  0.00000000E+00  0.00000000E+00
  0.00000000E+00  0.00000000E+00  0.00000000E+00
  0.00000000E+00  0.00000000E+00  0.00000000E+00
  0.00000000E+00  0.00000000E+00  0.00000000E+00
