C N O H                                 
   1.00000000000000     
    40.0000000000000000    0.0000000000000000    0.0000000000000000
     0.0000000000000000   40.0000000000000000    0.0000000000000000
     0.0000000000000000    0.0000000000000000   40.0000000000000000
   C    N    O    H 
     7     1     1     7
Selective dynamics
Direct
  0.5159045515629705  0.4685068134914556  0.5000000000000000   T   T   T
  0.5503083680163025  0.4745196456033138  0.5000000000000000   T   T   T
  0.5623494629053281  0.5073310241114372  0.5000000000000000   T   T   T
  0.5397347781922976  0.5341462376600328  0.5000000000000000   T   T   T
  0.5054188791224892  0.5282734729738162  0.5000000000000000   T   T   T
  0.4930272137117054  0.4952575911766530  0.5000000000000000   T   T   T
  0.4572835187371551  0.4875753105071191  0.5000000000000000   T   T   T
  0.4350149163814678  0.5108819706519138  0.5000000000000000   T   T   T
  0.4024894005031430  0.4975259662025461  0.5000009999999975   T   T   T
  0.3883012535391380  0.5173984778310357  0.5000009999999975   T   T   T
  0.4497543093077705  0.4611545032784392  0.5000000000000000   T   T   T
  0.4879074289754753  0.5491666521295653  0.5000000000000000   T   T   T
  0.5490481158454728  0.5597882793004638  0.5000000000000000   T   T   T
  0.5892103606829487  0.5120902549176684  0.4999990000000025   T   T   T
  0.5677192746156133  0.4535232181940112  0.4999990000000025   T   T   T
  0.5065291679007197  0.4428605819705219  0.5000000000000000   T   T   T
 
  0.00000000E+00  0.00000000E+00  0.00000000E+00
  0.00000000E+00  0.00000000E+00  0.00000000E+00
  0.00000000E+00  0.00000000E+00  0.00000000E+00
  0.00000000E+00  0.00000000E+00  0.00000000E+00
  0.00000000E+00  0.00000000E+00  0.00000000E+00
  0.00000000E+00  0.00000000E+00  0.00000000E+00
  0.00000000E+00  0.00000000E+00  0.00000000E+00
  0.00000000E+00  0.00000000E+00  0.00000000E+00
  0.00000000E+00  0.00000000E+00  0.00000000E+00
  0.00000000E+00  0.00000000E+00  0.00000000E+00
  0.00000000E+00  0.00000000E+00  0.00000000E+00
  0.00000000E+00  0.00000000E+00  0.00000000E+00
  0.00000000E+00  0.00000000E+00  0.00000000E+00
  0.00000000E+00  0.00000000E+00  0.00000000E+00
  0.00000000E+00  0.00000000E+00  0.00000000E+00
  0.00000000E+00  0.00000000E+00  0.00000000E+00
