C O H                                   
   1.00000000000000     
    40.0000000000000000    0.0000000000000000    0.0000000000000000
     0.0000000000000000   40.0000000000000000    0.0000000000000000
     0.0000000000000000    0.0000000000000000   40.0000000000000000
   C    O    H 
     7     1     8
Selective dynamics
Direct
  0.4981777025642273  0.5243925250937167  0.4999990000000025   T   T   T
  0.4642743311148720  0.5301823638805345  0.4999990000000025   T   T   T
  0.4412701217226029  0.5031135247437035  0.5000000000000000   T   T   T
  0.4525491129248351  0.4696296830426547  0.5000009999999975   T   T   T
  0.4862963947504184  0.4630749513985535  0.5000009999999975   T   T   T
  0.5094771416613213  0.4905073472487231  0.5000000000000000   T   T   T
  0.5678385257504246  0.5063376983379726  0.5000000000000000   T   T   T
  0.5411982799430604  0.4814873133094792  0.5000000000000000   T   T   T
  0.5659050335951363  0.5217011487501750  0.4773878400635638   T   T   T
  0.5659040335951389  0.5217011487501750  0.5226121599364362   T   T   T
  0.5909137027471800  0.4917958144891372  0.5000009999999975   T   T   T
  0.4963231924203058  0.4377619971590079  0.5000020000000021   T   T   T
  0.4345512258944950  0.4492051253805229  0.5000020000000021   T   T   T
  0.4145354859695587  0.5083669948681404  0.5000000000000000   T   T   T
  0.4548808585186066  0.5557310539638181  0.4999979999999979   T   T   T
  0.5159048568278024  0.5450113095836926  0.4999979999999979   T   T   T
 
  0.00000000E+00  0.00000000E+00  0.00000000E+00
  0.00000000E+00  0.00000000E+00  0.00000000E+00
  0.00000000E+00  0.00000000E+00  0.00000000E+00
  0.00000000E+00  0.00000000E+00  0.00000000E+00
  0.00000000E+00  0.00000000E+00  0.00000000E+00
  0.00000000E+00  0.00000000E+00  0.00000000E+00
  0.00000000E+00  0.00000000E+00  0.00000000E+00
  0.00000000E+00  0.00000000E+00  0.00000000E+00
  0.00000000E+00  0.00000000E+00  0.00000000E+00
  0.00000000E+00  0.00000000E+00  0.00000000E+00
  0.00000000E+00  0.00000000E+00  0.00000000E+00
  0.00000000E+00  0.00000000E+00  0.00000000E+00
  0.00000000E+00  0.00000000E+00  0.00000000E+00
  0.00000000E+00  0.00000000E+00  0.00000000E+00
  0.00000000E+00  0.00000000E+00  0.00000000E+00
  0.00000000E+00  0.00000000E+00  0.00000000E+00
