C N H                                   
   1.00000000000000     
    40.0000000000000000    0.0000000000000000    0.0000000000000000
     0.0000000000000000   40.0000000000000000    0.0000000000000000
     0.0000000000000000    0.0000000000000000   40.0000000000000000
   C    N    H 
     5     1    11
Selective dynamics
Direct
  0.4655029496820973  0.5000011660642230  0.5039343306704041   T   T   T
  0.4841881227940945  0.4684513589383243  0.4926552523908612   T   T   T
  0.5207369192830598  0.4696431859051842  0.5039333257342093   T   T   T
  0.5207357127084506  0.5303552686430635  0.5039370506842431   T   T   T
  0.4841904716223553  0.5315499571189690  0.4926521888734996   T   T   T
  0.5368767570026378  0.5000008354606891  0.4910946406942216   T   T   T
  0.5615142668290360  0.4999995302640201  0.4976970776392307   T   T   T
  0.4720988986215957  0.5541413929456027  0.5027012418435106   T   T   T
  0.4833927858208682  0.5333802964530321  0.4651456161489378   T   T   T
  0.5344962791734815  0.5522454335419766  0.4945514879547375   T   T   T
  0.5214726233728371  0.5314902750595749  0.5317727192831185   T   T   T
  0.5344925057829286  0.4477558141726803  0.4945413437273629   T   T   T
  0.5214783381465793  0.4685039443278143  0.5317691046575064   T   T   T
  0.4720972659413221  0.4458621129972542  0.5027115857791813   T   T   T
  0.4833854619061597  0.4666144927305922  0.4651493556899595   T   T   T
  0.4397326919073237  0.5000017940387167  0.4942566229995009   T   T   T
  0.4636089494051561  0.5000041413382732  0.5314970552295009   T   T   T
 
  0.00000000E+00  0.00000000E+00  0.00000000E+00
  0.00000000E+00  0.00000000E+00  0.00000000E+00
  0.00000000E+00  0.00000000E+00  0.00000000E+00
  0.00000000E+00  0.00000000E+00  0.00000000E+00
  0.00000000E+00  0.00000000E+00  0.00000000E+00
  0.00000000E+00  0.00000000E+00  0.00000000E+00
  0.00000000E+00  0.00000000E+00  0.00000000E+00
  0.00000000E+00  0.00000000E+00  0.00000000E+00
  0.00000000E+00  0.00000000E+00  0.00000000E+00
  0.00000000E+00  0.00000000E+00  0.00000000E+00
  0.00000000E+00  0.00000000E+00  0.00000000E+00
  0.00000000E+00  0.00000000E+00  0.00000000E+00
  0.00000000E+00  0.00000000E+00  0.00000000E+00
  0.00000000E+00  0.00000000E+00  0.00000000E+00
  0.00000000E+00  0.00000000E+00  0.00000000E+00
  0.00000000E+00  0.00000000E+00  0.00000000E+00
  0.00000000E+00  0.00000000E+00  0.00000000E+00
