!r2SCANh aug-cc-pVTZ d3 TightSCF SlowConv RIJCOSX defgrid2
 
%pal
nprocs 4
end
 
%scf
MaxIter 1500
end
 
%maxcore 3000
 
!CPCM
%cpcm smd true
SMDsolvent "MeCN"
surfacetype gepol_ses
rsolv 2.19
end 
 
* xyz 1 2
C           1.84281234672153     -0.00006597869847      0.01285546623039
C           1.14355368564506     -1.23902490190253      0.00158488089103
C          -0.22635786234437     -1.24013111711704     -0.01699413586169
C          -0.95506719113591     -0.00029607647166     -0.02822657050256
C          -2.42493771335276     -0.00015694603531     -0.01540251479795
H          -2.85288988584861      0.90688759110700     -0.47308067341050
H          -2.85357110348468     -0.91037144459146     -0.46576655952987
H          -2.75683389603493      0.00504463864823      1.05046901822320
C          -0.22649470626097      1.23969602067318     -0.01458794729593
C           1.14339815090709      1.23878434923716      0.00398375524291
H           1.70466297579754      2.17704577622432      0.01138483317017
H          -0.78522490872320      2.18007136225477     -0.02327385957075
H          -0.78496408789097     -2.18055191214167     -0.02751919353185
H           1.70496196149810     -2.17721430622763      0.00716529435102
H           2.93762583450709      0.00000044504112      0.02964230639238
*
