C N O H                                 
   1.00000000000000     
    40.0000000000000000    0.0000000000000000    0.0000000000000000
     0.0000000000000000   40.0000000000000000    0.0000000000000000
     0.0000000000000000    0.0000000000000000   40.0000000000000000
   C    N    O    H 
     9     1     2     7
Selective dynamics
Direct
  0.5164918729905549  0.4645398575183010  0.5000005397528282   T   T   T
  0.5509918894839051  0.4669723411253859  0.4999998190053547   T   T   T
  0.5660461656873271  0.4986203537408370  0.4999960073134253   T   T   T
  0.5463805898139582  0.5276119774715312  0.4999956330151391   T   T   T
  0.5118768308404662  0.5248818635164855  0.4999988248573303   T   T   T
  0.4967964286705820  0.4933701239539787  0.5000000927279635   T   T   T
  0.4598389657459555  0.4891254778470960  0.5000018727265411   T   T   T
  0.4076078402403792  0.5164586394204534  0.5000055576405339   T   T   T
  0.6015441289162015  0.5013161885814460  0.4999935018515605   T   T   T
  0.6304937158470690  0.5034769286273236  0.4999937145628024   T   T   T
  0.4457354728269575  0.4621568174877227  0.5000012046103393   T   T   T
  0.4436389496060099  0.5185924924985904  0.5000041952954933   T   T   T
  0.3990464712570721  0.5032693756300647  0.4777608725534369   T   T   T
  0.3989356769284320  0.5421842108060529  0.5000170173838137   T   T   T
  0.3990489377241391  0.5032507918871471  0.5222399496216578   T   T   T
  0.4964997367401170  0.5471191004207414  0.4999981832076117   T   T   T
  0.5583023723667813  0.5519020423571115  0.4999932385820897   T   T   T
  0.5664463946042415  0.4447632853965157  0.4999984033980989   T   T   T
  0.5042775597098511  0.4403891317132201  0.5000013718940022   T   T   T
 
  0.00000000E+00  0.00000000E+00  0.00000000E+00
  0.00000000E+00  0.00000000E+00  0.00000000E+00
  0.00000000E+00  0.00000000E+00  0.00000000E+00
  0.00000000E+00  0.00000000E+00  0.00000000E+00
  0.00000000E+00  0.00000000E+00  0.00000000E+00
  0.00000000E+00  0.00000000E+00  0.00000000E+00
  0.00000000E+00  0.00000000E+00  0.00000000E+00
  0.00000000E+00  0.00000000E+00  0.00000000E+00
  0.00000000E+00  0.00000000E+00  0.00000000E+00
  0.00000000E+00  0.00000000E+00  0.00000000E+00
  0.00000000E+00  0.00000000E+00  0.00000000E+00
  0.00000000E+00  0.00000000E+00  0.00000000E+00
  0.00000000E+00  0.00000000E+00  0.00000000E+00
  0.00000000E+00  0.00000000E+00  0.00000000E+00
  0.00000000E+00  0.00000000E+00  0.00000000E+00
  0.00000000E+00  0.00000000E+00  0.00000000E+00
  0.00000000E+00  0.00000000E+00  0.00000000E+00
  0.00000000E+00  0.00000000E+00  0.00000000E+00
  0.00000000E+00  0.00000000E+00  0.00000000E+00
