C N H                                   
   1.00000000000000     
    40.0000000000000000    0.0000000000000000    0.0000000000000000
     0.0000000000000000   40.0000000000000000    0.0000000000000000
     0.0000000000000000    0.0000000000000000   40.0000000000000000
   C    N    H 
     3     2     4
Selective dynamics
Direct
  0.5049684020793398  0.5245395432203943  0.5000009999999975   T   T   T
  0.5251880200000104  0.4965804554250091  0.5000000000000000   T   T   T
  0.5027848963509552  0.4694335789347340  0.5000009999999975   T   T   T
  0.4709909163227670  0.4795490365524909  0.4999990000000025   T   T   T
  0.4731225782985825  0.5131570469003568  0.4999990000000025   T   T   T
  0.4519919365406684  0.5268166231870858  0.4999990000000025   T   T   T
  0.5083183729329329  0.4430270909711775  0.5000009999999975   T   T   T
  0.5520984409657900  0.4959967216026314  0.5000000000000000   T   T   T
  0.5105354365089279  0.5508989032061227  0.5000009999999975   T   T   T
 
  0.00000000E+00  0.00000000E+00  0.00000000E+00
  0.00000000E+00  0.00000000E+00  0.00000000E+00
  0.00000000E+00  0.00000000E+00  0.00000000E+00
  0.00000000E+00  0.00000000E+00  0.00000000E+00
  0.00000000E+00  0.00000000E+00  0.00000000E+00
  0.00000000E+00  0.00000000E+00  0.00000000E+00
  0.00000000E+00  0.00000000E+00  0.00000000E+00
  0.00000000E+00  0.00000000E+00  0.00000000E+00
  0.00000000E+00  0.00000000E+00  0.00000000E+00
