!PBE0 aug-cc-pVTZ d3 TightSCF SlowConv RIJCOSX defgrid2
 
%pal
nprocs 4
end
 
%scf
MaxIter 1500
end
 
%maxcore 3000
 
!CPCM
%cpcm smd true
SMDsolvent "MeCN"
surfacetype gepol_ses
rsolv 2.19
end 
 
* xyz 1 2
C           1.51758494546740     -1.23435025814247     -0.00000948537283
C           2.20770781647749      0.00001697777377     -0.00002575082433
C           1.51757870176219      1.23438133176831     -0.00002376652717
C           0.14399615849667      1.24528780380919     -0.00000994709932
C          -0.57050335234681      0.00000980865076      0.00000339046104
C           0.14400107382655     -1.24526565590726      0.00000274901341
H          -0.41918051446955     -2.18175157250380      0.00001235664707
C          -1.95875076928202      0.00001227638427      0.00003168049002
C          -3.18886914512795      0.00003850956088      0.00015576875982
H          -4.27093083747358      0.00004174929515      0.00024791741498
H          -0.41918961682318      2.18177237850725     -0.00001398172647
H           2.07968932476853      2.17184704992506     -0.00003742036749
H           3.30249892053071      0.00001489531919     -0.00004324082103
H           2.07970099419353     -2.17181369444030     -0.00001477004770
*
