C O H                                   
   1.00000000000000     
    40.0000000000000000    0.0000000000000000    0.0000000000000000
     0.0000000000000000   40.0000000000000000    0.0000000000000000
     0.0000000000000000    0.0000000000000000   40.0000000000000000
   C    O    H 
    10     1    12
Selective dynamics
Direct
  0.4856738697761998  0.5214714277332817  0.4999965994025644   T   T   T
  0.4536889690755643  0.5073477063923093  0.4999973105907856   T   T   T
  0.4496527367335688  0.4717480557452376  0.5000020033624821   T   T   T
  0.4778092031003993  0.4512356159960476  0.5000002112762161   T   T   T
  0.5096624177905582  0.4651528051381320  0.5000013588382757   T   T   T
  0.5140178477113011  0.5010055129961373  0.5000003600146101   T   T   T
  0.5465674758586587  0.5162869904135192  0.4999953515694600   T   T   T
  0.5766798963984101  0.4999203283203215  0.5000024188807402   T   T   T
  0.6093244909706215  0.5171379899727029  0.4999999994013322   T   T   T
  0.3938290507469162  0.5164717190538397  0.4999996416893353   T   T   T
  0.4279649574033044  0.5287686286788187  0.4999943613052267   T   T   T
  0.6241664353747680  0.5091341172751171  0.4781606158906726   T   T   T
  0.6241622266321443  0.5091460176597877  0.5218470993527262   T   T   T
  0.6070353728640825  0.5444321297060597  0.4999918082235340   T   T   T
  0.5774364078590111  0.4726097015860304  0.5000103394132580   T   T   T
  0.5468944329621408  0.5436305883339259  0.4999914658330695   T   T   T
  0.5313783667349483  0.4487650696310723  0.5000024040106368   T   T   T
  0.4747222324179674  0.4241776460441002  0.5000041804354396   T   T   T
  0.4248013857830202  0.4606801694905940  0.5000049707984502   T   T   T
  0.3783051909960662  0.5389541939178315  0.4999996837882748   T   T   T
  0.3890454039651061  0.5016612759530048  0.5225896458058727   T   T   T
  0.3890386074349408  0.5016582634839608  0.4774126412538280   T   T   T
  0.4881430214103233  0.5486040464781752  0.4999955288631881   T   T   T
 
  0.00000000E+00  0.00000000E+00  0.00000000E+00
  0.00000000E+00  0.00000000E+00  0.00000000E+00
  0.00000000E+00  0.00000000E+00  0.00000000E+00
  0.00000000E+00  0.00000000E+00  0.00000000E+00
  0.00000000E+00  0.00000000E+00  0.00000000E+00
  0.00000000E+00  0.00000000E+00  0.00000000E+00
  0.00000000E+00  0.00000000E+00  0.00000000E+00
  0.00000000E+00  0.00000000E+00  0.00000000E+00
  0.00000000E+00  0.00000000E+00  0.00000000E+00
  0.00000000E+00  0.00000000E+00  0.00000000E+00
  0.00000000E+00  0.00000000E+00  0.00000000E+00
  0.00000000E+00  0.00000000E+00  0.00000000E+00
  0.00000000E+00  0.00000000E+00  0.00000000E+00
  0.00000000E+00  0.00000000E+00  0.00000000E+00
  0.00000000E+00  0.00000000E+00  0.00000000E+00
  0.00000000E+00  0.00000000E+00  0.00000000E+00
  0.00000000E+00  0.00000000E+00  0.00000000E+00
  0.00000000E+00  0.00000000E+00  0.00000000E+00
  0.00000000E+00  0.00000000E+00  0.00000000E+00
  0.00000000E+00  0.00000000E+00  0.00000000E+00
  0.00000000E+00  0.00000000E+00  0.00000000E+00
  0.00000000E+00  0.00000000E+00  0.00000000E+00
  0.00000000E+00  0.00000000E+00  0.00000000E+00
