C Cl O H                                
   1.00000000000000     
    40.0000000000000000    0.0000000000000000    0.0000000000000000
     0.0000000000000000   40.0000000000000000    0.0000000000000000
     0.0000000000000000    0.0000000000000000   40.0000000000000000
   C    Cl   O    H 
     7     1     1     5
Selective dynamics
Direct
  0.4971368674165249  0.4690534596499881  0.4999849288864759   T   T   T
  0.4632922878249749  0.4763454455949396  0.4999807709348402   T   T   T
  0.4525957092971621  0.5095031395699307  0.4999966517618397   T   T   T
  0.4758241997025616  0.5354035196992838  0.5000124875340578   T   T   T
  0.5097886906704066  0.5283475708037708  0.5000178106764566   T   T   T
  0.5206109758773789  0.4951123271228464  0.5000043002348753   T   T   T
  0.5560394845842203  0.4852446408447764  0.5000034510757347   T   T   T
  0.5855051595236614  0.5193841874605442  0.5000084604110782   T   T   T
  0.5666844776214310  0.4572195089412093  0.4999987628562871   T   T   T
  0.5279031174531091  0.5484164987785389  0.5000260604976262   T   T   T
  0.4674638622743835  0.5611570412843013  0.5000231871546972   T   T   T
  0.4260873205404643  0.5151375359133827  0.4999941705581960   T   T   T
  0.4451699021203441  0.4562267100793220  0.4999702326637461   T   T   T
  0.5058969450933583  0.4434494142571421  0.4999787247541029   T   T   T
 
  0.00000000E+00  0.00000000E+00  0.00000000E+00
  0.00000000E+00  0.00000000E+00  0.00000000E+00
  0.00000000E+00  0.00000000E+00  0.00000000E+00
  0.00000000E+00  0.00000000E+00  0.00000000E+00
  0.00000000E+00  0.00000000E+00  0.00000000E+00
  0.00000000E+00  0.00000000E+00  0.00000000E+00
  0.00000000E+00  0.00000000E+00  0.00000000E+00
  0.00000000E+00  0.00000000E+00  0.00000000E+00
  0.00000000E+00  0.00000000E+00  0.00000000E+00
  0.00000000E+00  0.00000000E+00  0.00000000E+00
  0.00000000E+00  0.00000000E+00  0.00000000E+00
  0.00000000E+00  0.00000000E+00  0.00000000E+00
  0.00000000E+00  0.00000000E+00  0.00000000E+00
  0.00000000E+00  0.00000000E+00  0.00000000E+00
