C O H                                   
   1.00000000000000     
    40.0000000000000000    0.0000000000000000    0.0000000000000000
     0.0000000000000000   40.0000000000000000    0.0000000000000000
     0.0000000000000000    0.0000000000000000   40.0000000000000000
   C    O    H 
    10     1    12
Selective dynamics
Direct
  0.5029390255466168  0.5301146078598578  0.4999996040161179   T   T   T
  0.4688003435382271  0.5360364585620587  0.4999982168093169   T   T   T
  0.4460736383384827  0.5091769648866702  0.4999993301840036   T   T   T
  0.4583080966572055  0.4763708924952255  0.5000019800319748   T   T   T
  0.4928337223025849  0.4709256415539400  0.5000025505128178   T   T   T
  0.5160282791102375  0.4973062758727167  0.5000016215931211   T   T   T
  0.5518778437051068  0.4898007950466550  0.5000026851821247   T   T   T
  0.5774850324985934  0.5116484089091102  0.4999994503390184   T   T   T
  0.6135953006422525  0.5019960082880459  0.5000011067904353   T   T   T
  0.3889812902782097  0.4911116775194841  0.4999965018262245   T   T   T
  0.4129110217364982  0.5176988153628628  0.4999973263117852   T   T   T
  0.6266793364196346  0.5121718941735622  0.5220127354259319   T   T   T
  0.6266793170273246  0.5121640633770497  0.4779857363485931   T   T   T
  0.6168102114364160  0.4747190382596145  0.5000057148409880   T   T   T
  0.5723262795247237  0.5385296210323887  0.4999952918068971   T   T   T
  0.5580126074190375  0.4630766546658691  0.5000066783017871   T   T   T
  0.5020465243080068  0.4452105569444669  0.5000050115706287   T   T   T
  0.4414144801682696  0.4550308191642074  0.5000024240344629   T   T   T
  0.3914454286190860  0.4753806988968208  0.5224701706489157   T   T   T
  0.3914490779435127  0.4753791233992359  0.4775238441690064   T   T   T
  0.3644033577256138  0.5031498940921821  0.4999942173230494   T   T   T
  0.4590368820487498  0.5614915607106070  0.4999972449476715   T   T   T
  0.5198649030056330  0.5515095289273830  0.4999995569851308   T   T   T
 
  0.00000000E+00  0.00000000E+00  0.00000000E+00
  0.00000000E+00  0.00000000E+00  0.00000000E+00
  0.00000000E+00  0.00000000E+00  0.00000000E+00
  0.00000000E+00  0.00000000E+00  0.00000000E+00
  0.00000000E+00  0.00000000E+00  0.00000000E+00
  0.00000000E+00  0.00000000E+00  0.00000000E+00
  0.00000000E+00  0.00000000E+00  0.00000000E+00
  0.00000000E+00  0.00000000E+00  0.00000000E+00
  0.00000000E+00  0.00000000E+00  0.00000000E+00
  0.00000000E+00  0.00000000E+00  0.00000000E+00
  0.00000000E+00  0.00000000E+00  0.00000000E+00
  0.00000000E+00  0.00000000E+00  0.00000000E+00
  0.00000000E+00  0.00000000E+00  0.00000000E+00
  0.00000000E+00  0.00000000E+00  0.00000000E+00
  0.00000000E+00  0.00000000E+00  0.00000000E+00
  0.00000000E+00  0.00000000E+00  0.00000000E+00
  0.00000000E+00  0.00000000E+00  0.00000000E+00
  0.00000000E+00  0.00000000E+00  0.00000000E+00
  0.00000000E+00  0.00000000E+00  0.00000000E+00
  0.00000000E+00  0.00000000E+00  0.00000000E+00
  0.00000000E+00  0.00000000E+00  0.00000000E+00
  0.00000000E+00  0.00000000E+00  0.00000000E+00
  0.00000000E+00  0.00000000E+00  0.00000000E+00
