C F O H                                 
   1.00000000000000     
    40.0000000000000000    0.0000000000000000    0.0000000000000000
     0.0000000000000000   40.0000000000000000    0.0000000000000000
     0.0000000000000000    0.0000000000000000   40.0000000000000000
   C    F    O    H 
     8     1     1     7
Selective dynamics
Direct
  0.5100438088429833  0.5233316506275565  0.5000044280033348   T   T   T
  0.5448988817136947  0.5240772937657137  0.5000106696549373   T   T   T
  0.5618614416289465  0.4937449357618027  0.5000053721301293   T   T   T
  0.5457215413336587  0.4629051498190055  0.5000006598215826   T   T   T
  0.5109640680092196  0.4627210865438274  0.4999981760439835   T   T   T
  0.4926716555273902  0.4927644391268449  0.4999986090201162   T   T   T
  0.4554094861489252  0.4911461281046811  0.4999968615471192   T   T   T
  0.4357570073788151  0.5233315876153609  0.4999926954321272   T   T   T
  0.5960489273112272  0.4941560048018291  0.5000072270551319   T   T   T
  0.4408929969924317  0.4637899107820549  0.4999951488521865   T   T   T
  0.4418865348084330  0.5384916682428621  0.5220761589519234   T   T   T
  0.4418944304675868  0.5384977732295053  0.4779161016127226   T   T   T
  0.4090153856886009  0.5175964452314988  0.4999887370929577   T   T   T
  0.4974043177783302  0.4391133006248712  0.4999934647358518   T   T   T
  0.5602398012228647  0.4398841737624772  0.4999994941580968   T   T   T
  0.5587608063538716  0.5474929173180704  0.5000127113506766   T   T   T
  0.4965289087930130  0.5469555346420603  0.5000044845371340   T   T   T
 
  0.00000000E+00  0.00000000E+00  0.00000000E+00
  0.00000000E+00  0.00000000E+00  0.00000000E+00
  0.00000000E+00  0.00000000E+00  0.00000000E+00
  0.00000000E+00  0.00000000E+00  0.00000000E+00
  0.00000000E+00  0.00000000E+00  0.00000000E+00
  0.00000000E+00  0.00000000E+00  0.00000000E+00
  0.00000000E+00  0.00000000E+00  0.00000000E+00
  0.00000000E+00  0.00000000E+00  0.00000000E+00
  0.00000000E+00  0.00000000E+00  0.00000000E+00
  0.00000000E+00  0.00000000E+00  0.00000000E+00
  0.00000000E+00  0.00000000E+00  0.00000000E+00
  0.00000000E+00  0.00000000E+00  0.00000000E+00
  0.00000000E+00  0.00000000E+00  0.00000000E+00
  0.00000000E+00  0.00000000E+00  0.00000000E+00
  0.00000000E+00  0.00000000E+00  0.00000000E+00
  0.00000000E+00  0.00000000E+00  0.00000000E+00
  0.00000000E+00  0.00000000E+00  0.00000000E+00
