!PBE0 def2-SV(p) Opt Freq d3 TightSCF SlowConv RIJCOSX defgrid2
 
%pal
nprocs 4
end
 
%scf
MaxIter 1500
end
 
%maxcore 3000
 

 
* xyz 1 2
C    -2.3491288   -1.2147960    0.3897636 
C    -3.6049917   -0.6533130    0.3872699 
C    -3.7893371    0.6560219   -0.0548101 
C    -2.7015358    1.3948090   -0.5129265 
C    -1.4355688    0.8519341   -0.5099173 
C    -1.2333415   -0.4580495   -0.0288494 
N    -0.0000203   -1.0469571   -0.0009089 
C     1.2333427   -0.4581305    0.0283084 
C     1.4353984    0.8518374    0.5094685 
C     2.7013935    1.3946825    0.5129724 
C     3.7893613    0.6558575    0.0553352 
C     3.6051742   -0.6535055   -0.3867711 
C     2.3493098   -1.2149406   -0.3897697 
H     2.2064225   -2.2223979   -0.7501343 
H     4.4503590   -1.2281195   -0.7314552 
H     4.7775775    1.0877974    0.0647710 
H     2.8528055    2.3916910    0.8955550 
H     0.6104738    1.3988806    0.9379885 
H    -0.0000629   -2.0667079   -0.0000269 
H    -0.6107858    1.3988762   -0.9388434 
H    -2.8530794    2.3917954   -0.8955136 
H    -4.7775468    1.0879842   -0.0638693 
H    -4.4500507   -1.2278956    0.7323181 
H    -2.2061546   -2.2222629    0.7500855
*
