C O H                                   
   1.00000000000000     
    40.0000000000000000    0.0000000000000000    0.0000000000000000
     0.0000000000000000   40.0000000000000000    0.0000000000000000
     0.0000000000000000    0.0000000000000000   40.0000000000000000
   C    O    H 
     8     1     6
Selective dynamics
Direct
  0.5175612904270687  0.4609117227881581  0.5000000000000000   T   T   T
  0.5480924061160589  0.4778701485374172  0.5000000000000000   T   T   T
  0.5494837858630855  0.5130669746775794  0.5000000000000000   T   T   T
  0.5205016104136410  0.5324202191292616  0.5000000000000000   T   T   T
  0.4894514295830685  0.5159788941322635  0.5000000000000000   T   T   T
  0.4889805163628526  0.4806829469745519  0.5000000000000000   T   T   T
  0.4365586325754628  0.4974607741106818  0.5000000000000000   T   T   T
  0.4548680281273161  0.5261239830943788  0.5000000000000000   T   T   T
  0.4564835717880057  0.4692240935013925  0.5000000000000000   T   T   T
  0.4449629674915393  0.5513710467792574  0.5000000000000000   T   T   T
  0.4098875726887781  0.4926265495288081  0.5000009999999975   T   T   T
  0.5219139405825136  0.5596466632151383  0.5000000000000000   T   T   T
  0.5738304598625271  0.5253452627453035  0.5000000000000000   T   T   T
  0.5712983195850988  0.4635559453495361  0.5000000000000000   T   T   T
  0.5161244685329855  0.4337137754362739  0.5000000000000000   T   T   T
 
  0.00000000E+00  0.00000000E+00  0.00000000E+00
  0.00000000E+00  0.00000000E+00  0.00000000E+00
  0.00000000E+00  0.00000000E+00  0.00000000E+00
  0.00000000E+00  0.00000000E+00  0.00000000E+00
  0.00000000E+00  0.00000000E+00  0.00000000E+00
  0.00000000E+00  0.00000000E+00  0.00000000E+00
  0.00000000E+00  0.00000000E+00  0.00000000E+00
  0.00000000E+00  0.00000000E+00  0.00000000E+00
  0.00000000E+00  0.00000000E+00  0.00000000E+00
  0.00000000E+00  0.00000000E+00  0.00000000E+00
  0.00000000E+00  0.00000000E+00  0.00000000E+00
  0.00000000E+00  0.00000000E+00  0.00000000E+00
  0.00000000E+00  0.00000000E+00  0.00000000E+00
  0.00000000E+00  0.00000000E+00  0.00000000E+00
  0.00000000E+00  0.00000000E+00  0.00000000E+00
