!PBE0 def2-SV(p) Opt Freq d3 TightSCF SlowConv RIJCOSX defgrid2
 
%pal
nprocs 4
end
 
%scf
MaxIter 1500
end
 
%maxcore 3000
 

 
* xyz 0 1
C    -0.0424631    1.1979504   -0.0021440 
C    -1.4234153    1.2065282   -0.0059665 
C    -2.1525599    0.0210226   -0.0082892 
C    -1.4564169   -1.1851936   -0.0056989 
C    -0.0781762   -1.2014182   -0.0016551 
C     0.6552918   -0.0111489   -0.0003074 
C     2.1314424   -0.0971780    0.0018341 
O     2.7076397   -1.1729442    0.0026517 
C     2.9035169    1.1990044    0.0031334 
H     3.9687949    0.9818808    0.0054928 
H     2.6516744    1.7807902    0.8866321 
H     2.6555545    1.7800569   -0.8819589 
H     0.4643351   -2.1357989   -0.0009905 
H    -2.0039011   -2.1164208   -0.0079643 
C    -3.6481734    0.0374390    0.0092849 
H    -4.0032609   -0.0812704    1.0333555 
H    -4.0323690    0.9780502   -0.3764462 
H    -4.0498278   -0.7835347   -0.5799730 
H    -1.9486003    2.1505784   -0.0083444 
H     0.4866177    2.1372918   -0.0020488
*
