C O H                                   
   1.00000000000000     
    25.0000000000000000    0.0000000000000000    0.0000000000000000
     0.0000000000000000   25.0000000000000000    0.0000000000000000
     0.0000000000000000    0.0000000000000000   25.0000000000000000
   C    O    H 
    11     2     8
Selective dynamics
Direct
  0.5022743942242026  0.4922430344055417  0.4275883516454492   T   T   T
  0.5019210510207639  0.5507378952899297  0.4331266573290569   T   T   T
  0.5003868637540461  0.5762403921780136  0.4809750280080805   T   T   T
  0.4989327655862867  0.5442654645355632  0.5314828585156330   T   T   T
  0.4992017600267816  0.4849675964524807  0.5275775376079379   T   T   T
  0.5008708829664555  0.4594942813603426  0.4772073137096595   T   T   T
  0.5011432968780897  0.4035595137830050  0.4743134211812605   T   T   T
  0.4997242425675437  0.3730499154744561  0.5211030543998351   T   T   T
  0.4980557771777428  0.3983193363209498  0.5710782068780864   T   T   T
  0.4978323791954691  0.4540705142329877  0.5743039003651059   T   T   T
  0.4999680440875583  0.6356192337592210  0.4866245323350008   T   T   T
  0.4975557641658768  0.5674126719035019  0.5753531966394523   T   T   T
  0.5036738596894904  0.4713598861313626  0.3824070864433294   T   T   T
  0.5029777011157691  0.5732651976269703  0.3956772688719006   T   T   T
  0.4966046167826586  0.4741634743387477  0.6129842377415937   T   T   T
  0.4970074384298063  0.3744530409507978  0.6075878099118108   T   T   T
  0.4999478327717510  0.3294819020434471  0.5186601620851717   T   T   T
  0.5024433235429271  0.3843476340095256  0.4351788248643103   T   T   T
  0.4640404240705493  0.6485829901575081  0.5085056630285685   T   T   T
  0.5343525761175550  0.6488838368952914  0.5106886720826033   T   T   T
  0.5010850058286691  0.6554821881503499  0.4475752163561562   T   T   T
 
  0.00000000E+00  0.00000000E+00  0.00000000E+00
  0.00000000E+00  0.00000000E+00  0.00000000E+00
  0.00000000E+00  0.00000000E+00  0.00000000E+00
  0.00000000E+00  0.00000000E+00  0.00000000E+00
  0.00000000E+00  0.00000000E+00  0.00000000E+00
  0.00000000E+00  0.00000000E+00  0.00000000E+00
  0.00000000E+00  0.00000000E+00  0.00000000E+00
  0.00000000E+00  0.00000000E+00  0.00000000E+00
  0.00000000E+00  0.00000000E+00  0.00000000E+00
  0.00000000E+00  0.00000000E+00  0.00000000E+00
  0.00000000E+00  0.00000000E+00  0.00000000E+00
  0.00000000E+00  0.00000000E+00  0.00000000E+00
  0.00000000E+00  0.00000000E+00  0.00000000E+00
  0.00000000E+00  0.00000000E+00  0.00000000E+00
  0.00000000E+00  0.00000000E+00  0.00000000E+00
  0.00000000E+00  0.00000000E+00  0.00000000E+00
  0.00000000E+00  0.00000000E+00  0.00000000E+00
  0.00000000E+00  0.00000000E+00  0.00000000E+00
  0.00000000E+00  0.00000000E+00  0.00000000E+00
  0.00000000E+00  0.00000000E+00  0.00000000E+00
  0.00000000E+00  0.00000000E+00  0.00000000E+00
