C N H                                   
   1.00000000000000     
    40.0000000000000000    0.0000000000000000    0.0000000000000000
     0.0000000000000000   40.0000000000000000    0.0000000000000000
     0.0000000000000000    0.0000000000000000   40.0000000000000000
   C    N    H 
     6     1    15
Selective dynamics
Direct
  0.4746954730079125  0.5012727559980448  0.5212869197650178   T   T   T
  0.4404263732577718  0.4979622166829856  0.5037302743704331   T   T   T
  0.5150632061629850  0.4754304667605496  0.4796628377419196   T   T   T
  0.5140398652207381  0.4424756043590747  0.4985518268247517   T   T   T
  0.5128802993989297  0.5371526717783155  0.4873084668615704   T   T   T
  0.5431474532688014  0.5474564883289901  0.5088902946741598   T   T   T
  0.5012248638118564  0.5041922015035993  0.4969007055224424   T   T   T
  0.4212005826455183  0.4964408725664455  0.5232198874777936   T   T   T
  0.4393583701280761  0.4752773775619019  0.4883833780458033   T   T   T
  0.4354501506418558  0.5198193794554626  0.4879543983239714   T   T   T
  0.4793525540483472  0.4793233858021608  0.5370504059361281   T   T   T
  0.4751201883983711  0.5238550619146309  0.5368517800828272   T   T   T
  0.4884694875585964  0.4338945267114198  0.5035041473474777   T   T   T
  0.5263098911289177  0.4235315377048678  0.4829637672099594   T   T   T
  0.5277365376506040  0.4442414194933875  0.5222666337433637   T   T   T
  0.5010212338103770  0.4734181772966934  0.4558122237591107   T   T   T
  0.5407034414759124  0.4821641062975885  0.4723433418217056   T   T   T
  0.5638133635255542  0.5296934313085018  0.5057771990534761   T   T   T
  0.5362889411033791  0.5488339207634496  0.5354013179594759   T   T   T
  0.5513875898834186  0.5722404276323232  0.5005131534133298   T   T   T
  0.5200400541466408  0.5364017521599536  0.4608254051060712   T   T   T
  0.4922710797253913  0.5549232179196508  0.4908016349591762   T   T   T
 
  0.00000000E+00  0.00000000E+00  0.00000000E+00
  0.00000000E+00  0.00000000E+00  0.00000000E+00
  0.00000000E+00  0.00000000E+00  0.00000000E+00
  0.00000000E+00  0.00000000E+00  0.00000000E+00
  0.00000000E+00  0.00000000E+00  0.00000000E+00
  0.00000000E+00  0.00000000E+00  0.00000000E+00
  0.00000000E+00  0.00000000E+00  0.00000000E+00
  0.00000000E+00  0.00000000E+00  0.00000000E+00
  0.00000000E+00  0.00000000E+00  0.00000000E+00
  0.00000000E+00  0.00000000E+00  0.00000000E+00
  0.00000000E+00  0.00000000E+00  0.00000000E+00
  0.00000000E+00  0.00000000E+00  0.00000000E+00
  0.00000000E+00  0.00000000E+00  0.00000000E+00
  0.00000000E+00  0.00000000E+00  0.00000000E+00
  0.00000000E+00  0.00000000E+00  0.00000000E+00
  0.00000000E+00  0.00000000E+00  0.00000000E+00
  0.00000000E+00  0.00000000E+00  0.00000000E+00
  0.00000000E+00  0.00000000E+00  0.00000000E+00
  0.00000000E+00  0.00000000E+00  0.00000000E+00
  0.00000000E+00  0.00000000E+00  0.00000000E+00
  0.00000000E+00  0.00000000E+00  0.00000000E+00
  0.00000000E+00  0.00000000E+00  0.00000000E+00
