C O H                                   
   1.00000000000000     
    40.0000000000000000    0.0000000000000000    0.0000000000000000
     0.0000000000000000   40.0000000000000000    0.0000000000000000
     0.0000000000000000    0.0000000000000000   40.0000000000000000
   C    O    H 
     4     2     8
Selective dynamics
Direct
  0.5182052463347233  0.4706296897397024  0.5054795259812082   T   T   T
  0.4817967536652716  0.4706286897396978  0.4945204740187918   T   T   T
  0.4817947536652767  0.5293703102602976  0.4945204740187918   T   T   T
  0.5182032463347284  0.5293713102603022  0.5054795259812082   T   T   T
  0.4648995019803195  0.4999990000000025  0.5063205297114308   T   T   T
  0.5351004980196805  0.5000009999999975  0.4936794702885692   T   T   T
  0.4684220092652751  0.4490567687864910  0.5050280275242827   T   T   T
  0.4803372700548962  0.4694721599635088  0.4668942634084772   T   T   T
  0.5315779907347249  0.5509432312135090  0.4949719724757173   T   T   T
  0.5196627299451038  0.5305278400364912  0.5331057365915228   T   T   T
  0.4684190092652756  0.5509412312135069  0.5050290275242872   T   T   T
  0.4803342700548967  0.5305278400364912  0.4668952634084818   T   T   T
  0.5315809907347244  0.4490587687864931  0.4949709724757128   T   T   T
  0.5196657299451033  0.4694721599635088  0.5331047365915182   T   T   T
 
  0.00000000E+00  0.00000000E+00  0.00000000E+00
  0.00000000E+00  0.00000000E+00  0.00000000E+00
  0.00000000E+00  0.00000000E+00  0.00000000E+00
  0.00000000E+00  0.00000000E+00  0.00000000E+00
  0.00000000E+00  0.00000000E+00  0.00000000E+00
  0.00000000E+00  0.00000000E+00  0.00000000E+00
  0.00000000E+00  0.00000000E+00  0.00000000E+00
  0.00000000E+00  0.00000000E+00  0.00000000E+00
  0.00000000E+00  0.00000000E+00  0.00000000E+00
  0.00000000E+00  0.00000000E+00  0.00000000E+00
  0.00000000E+00  0.00000000E+00  0.00000000E+00
  0.00000000E+00  0.00000000E+00  0.00000000E+00
  0.00000000E+00  0.00000000E+00  0.00000000E+00
  0.00000000E+00  0.00000000E+00  0.00000000E+00
