!PBE0 def2-SV(p) Opt Freq d3 TightSCF SlowConv RIJCOSX defgrid2
 
%pal
nprocs 4
end
 
%scf
MaxIter 1500
end
 
%maxcore 3000
 

 
* xyz 0 1
C    -0.3236570   -1.0810897    0.0000096 
C     0.9844008   -0.7090097   -0.0000039 
C     0.9843596    0.7090666   -0.0000068 
C    -0.3237231    1.0810691    0.0000098 
O    -1.1234326   -0.0000360    0.0000302 
H    -0.7973332    2.0425276    0.0000196 
H     1.8387583    1.3539302   -0.0000009 
H     1.8388369   -1.3538253    0.0000059 
H    -0.7972138   -2.0425762    0.0000191
*
