C O H                                   
   1.00000000000000     
    40.0000000000000000    0.0000000000000000    0.0000000000000000
     0.0000000000000000   40.0000000000000000    0.0000000000000000
     0.0000000000000000    0.0000000000000000   40.0000000000000000
   C    O    H 
    10     1    12
Selective dynamics
Direct
  0.5029815421059467  0.5301474785914034  0.4999997411987290   T   T   T
  0.4688105372013842  0.5360697168021293  0.4999982706337511   T   T   T
  0.4460721288959982  0.5091916271990349  0.4999991100652509   T   T   T
  0.4582794441539816  0.4763515573382328  0.5000019702039902   T   T   T
  0.4928292560558467  0.4708891058803443  0.5000031325066583   T   T   T
  0.5160358861309546  0.4973042254223322  0.5000014468289633   T   T   T
  0.5519106014475120  0.4897620525711534  0.5000030961188926   T   T   T
  0.5775072868997200  0.5116758834121273  0.4999997974761389   T   T   T
  0.6136267579175768  0.5019784319135729  0.5000009976889788   T   T   T
  0.3888767510784460  0.4910262787611773  0.4999971537550472   T   T   T
  0.4129042845400734  0.5177181245616835  0.4999970552817632   T   T   T
  0.6266777507555803  0.5121950979828765  0.5220266854612413   T   T   T
  0.6266783096966876  0.5121873412850692  0.4779711341089666   T   T   T
  0.6167987155979684  0.4746821289400258  0.5000055954555782   T   T   T
  0.5723274121163338  0.5385719193886674  0.4999950937527862   T   T   T
  0.5580193391593927  0.4630273026910179  0.5000064545832610   T   T   T
  0.5020537178705294  0.4451779301317190  0.5000049700731348   T   T   T
  0.4414003526413891  0.4549962153193760  0.5000021362990601   T   T   T
  0.3914448806276050  0.4753891952216495  0.5225030902574919   T   T   T
  0.3914488242167514  0.4753883687394029  0.4774911165063175   T   T   T
  0.3643485719304912  0.5031644035757592  0.4999941242880426   T   T   T
  0.4590809501290441  0.5615514615503284  0.4999973212835620   T   T   T
  0.5198886988307880  0.5515541527209310  0.4999995061723894   T   T   T
 
  0.00000000E+00  0.00000000E+00  0.00000000E+00
  0.00000000E+00  0.00000000E+00  0.00000000E+00
  0.00000000E+00  0.00000000E+00  0.00000000E+00
  0.00000000E+00  0.00000000E+00  0.00000000E+00
  0.00000000E+00  0.00000000E+00  0.00000000E+00
  0.00000000E+00  0.00000000E+00  0.00000000E+00
  0.00000000E+00  0.00000000E+00  0.00000000E+00
  0.00000000E+00  0.00000000E+00  0.00000000E+00
  0.00000000E+00  0.00000000E+00  0.00000000E+00
  0.00000000E+00  0.00000000E+00  0.00000000E+00
  0.00000000E+00  0.00000000E+00  0.00000000E+00
  0.00000000E+00  0.00000000E+00  0.00000000E+00
  0.00000000E+00  0.00000000E+00  0.00000000E+00
  0.00000000E+00  0.00000000E+00  0.00000000E+00
  0.00000000E+00  0.00000000E+00  0.00000000E+00
  0.00000000E+00  0.00000000E+00  0.00000000E+00
  0.00000000E+00  0.00000000E+00  0.00000000E+00
  0.00000000E+00  0.00000000E+00  0.00000000E+00
  0.00000000E+00  0.00000000E+00  0.00000000E+00
  0.00000000E+00  0.00000000E+00  0.00000000E+00
  0.00000000E+00  0.00000000E+00  0.00000000E+00
  0.00000000E+00  0.00000000E+00  0.00000000E+00
  0.00000000E+00  0.00000000E+00  0.00000000E+00
