!PBE0 def2-SV(p) Opt Freq d3 TightSCF SlowConv RIJCOSX defgrid2
 
%pal
nprocs 4
end
 
%scf
MaxIter 1500
end
 
%maxcore 3000
 

 
* xyz 0 1
C    -1.0498581   -0.8955792   -0.0013623 
C     0.2499717   -1.3739970   -0.0014963 
C     0.5370476   -2.8467385    0.0018279 
H    -0.3838316   -3.4234465   -0.0318300 
H     1.0877071   -3.1218467    0.9008808 
H     1.1497063   -3.1154469   -0.8578338 
C     1.3005849   -0.4614772   -0.0021659 
C     1.0648630    0.9033948   -0.0022630 
C     2.1968147    1.8883616    0.0020337 
H     3.1559244    1.3801471   -0.0578431 
H     2.1089846    2.5715750   -0.8416556 
H     2.1749703    2.4834196    0.9146162 
C    -0.2506439    1.3570451   -0.0019227 
C    -1.3148218    0.4705289   -0.0016448 
C    -2.7338348    0.9582529    0.0015380 
H    -3.2750419    0.5561619   -0.8539760 
H    -2.7729904    2.0438600   -0.0391871 
H    -3.2452430    0.6250544    0.9041018 
H    -0.4409567    2.4217006   -0.0024469 
H     2.3177882   -0.8288984   -0.0027839 
H    -1.8768154   -1.5926098   -0.0013819
*
