C O H                                   
   1.00000000000000     
    40.0000000000000000    0.0000000000000000    0.0000000000000000
     0.0000000000000000   40.0000000000000000    0.0000000000000000
     0.0000000000000000    0.0000000000000000   40.0000000000000000
   C    O    H 
    14     1    12
Selective dynamics
Direct
  0.4565891700677724  0.5347311857745964  0.4933180155069294   T   T   T
  0.4372119947471589  0.5050926725244906  0.4988599997590981   T   T   T
  0.4558969463069289  0.4750237605537251  0.5043198507308873   T   T   T
  0.4904857041837190  0.4746798720792142  0.5039214034387669   T   T   T
  0.5096799565219996  0.5043001988200189  0.4988898975879579   T   T   T
  0.4911164479868617  0.5343288463555353  0.4937631899150929   T   T   T
  0.5461554289313071  0.5039789168455187  0.4989202911586901   T   T   T
  0.5646503031929484  0.4752363695671491  0.4891624849482810   T   T   T
  0.5994878501147838  0.4751277154403653  0.4890461069105356   T   T   T
  0.6175922162569165  0.5035569750146820  0.4988362887732336   T   T   T
  0.5998606336727761  0.5321963156614942  0.5086847182571290   T   T   T
  0.5650296879961942  0.5324820330469890  0.5086456068193215   T   T   T
  0.4012130871231818  0.5063235958286043  0.4990185670601193   T   T   T
  0.3818150122075679  0.4743839270456363  0.5063652243889365   T   T   T
  0.3848308055388685  0.5332973879526719  0.4935665985389264   T   T   T
  0.5045849432193137  0.5576249960929189  0.4890036625170637   T   T   T
  0.5519684657459862  0.5548832403028783  0.5171632205474737   T   T   T
  0.6134032235734210  0.5544642586186228  0.5168391425101433   T   T   T
  0.6448624160573786  0.5033897587238769  0.4987938520219757   T   T   T
  0.6127534369178136  0.4527125261946097  0.4808198750431600   T   T   T
  0.5512976903957636  0.4529957951852026  0.4806570553231495   T   T   T
  0.5033847578894850  0.4510854838785576  0.5087291510436813   T   T   T
  0.4427519602559187  0.4516216370959896  0.5092352218754570   T   T   T
  0.3549464242712403  0.4798063382462203  0.5053765336123917   T   T   T
  0.3873778577335329  0.4543421779510055  0.4882645250678266   T   T   T
  0.3877766159360334  0.4642871521911403  0.5313372439653676   T   T   T
  0.4432769631551636  0.5580478630082624  0.4884632726784019   T   T   T
 
  0.00000000E+00  0.00000000E+00  0.00000000E+00
  0.00000000E+00  0.00000000E+00  0.00000000E+00
  0.00000000E+00  0.00000000E+00  0.00000000E+00
  0.00000000E+00  0.00000000E+00  0.00000000E+00
  0.00000000E+00  0.00000000E+00  0.00000000E+00
  0.00000000E+00  0.00000000E+00  0.00000000E+00
  0.00000000E+00  0.00000000E+00  0.00000000E+00
  0.00000000E+00  0.00000000E+00  0.00000000E+00
  0.00000000E+00  0.00000000E+00  0.00000000E+00
  0.00000000E+00  0.00000000E+00  0.00000000E+00
  0.00000000E+00  0.00000000E+00  0.00000000E+00
  0.00000000E+00  0.00000000E+00  0.00000000E+00
  0.00000000E+00  0.00000000E+00  0.00000000E+00
  0.00000000E+00  0.00000000E+00  0.00000000E+00
  0.00000000E+00  0.00000000E+00  0.00000000E+00
  0.00000000E+00  0.00000000E+00  0.00000000E+00
  0.00000000E+00  0.00000000E+00  0.00000000E+00
  0.00000000E+00  0.00000000E+00  0.00000000E+00
  0.00000000E+00  0.00000000E+00  0.00000000E+00
  0.00000000E+00  0.00000000E+00  0.00000000E+00
  0.00000000E+00  0.00000000E+00  0.00000000E+00
  0.00000000E+00  0.00000000E+00  0.00000000E+00
  0.00000000E+00  0.00000000E+00  0.00000000E+00
  0.00000000E+00  0.00000000E+00  0.00000000E+00
  0.00000000E+00  0.00000000E+00  0.00000000E+00
  0.00000000E+00  0.00000000E+00  0.00000000E+00
  0.00000000E+00  0.00000000E+00  0.00000000E+00
