C O H                                   
   1.00000000000000     
    40.0000000000000000    0.0000000000000000    0.0000000000000000
     0.0000000000000000   40.0000000000000000    0.0000000000000000
     0.0000000000000000    0.0000000000000000   40.0000000000000000
   C    O    H 
    10     2    10
Selective dynamics
Direct
  0.4935197244936765  0.4572939023379995  0.5020361078665670   T   T   T
  0.4593016667376673  0.4539108017183877  0.5004667306403876   T   T   T
  0.4414797402329150  0.4836509088084540  0.4985350233572986   T   T   T
  0.4573713459984302  0.5153683947997422  0.4983598837076275   T   T   T
  0.4912331749330313  0.5190370827036354  0.4999402087305436   T   T   T
  0.5101489255463556  0.4891622892633472  0.5016751544742037   T   T   T
  0.5458668144453145  0.4885301321298893  0.5027604439299026   T   T   T
  0.5664089474817746  0.5157220660885165  0.5020254470899744   T   T   T
  0.6032381668189923  0.5137248054768838  0.5024751521354114   T   T   T
  0.4018276488411202  0.5230549864771462  0.4948698514039534   T   T   T
  0.4337860768101094  0.5393517484685876  0.4964382626582492   T   T   T
  0.4085484451329025  0.4874869557239770  0.4966300894339520   T   T   T
  0.6123371440280666  0.4880629249597059  0.5033094210670321   T   T   T
  0.6134739330243744  0.5263128743740336  0.4803852008706673   T   T   T
  0.6131134141714768  0.5276056364419583  0.5239478746881574   T   T   T
  0.5557610790713902  0.5406615682190090  0.5009164809464520   T   T   T
  0.5572903384487756  0.4639138937446103  0.5039500995941356   T   T   T
  0.5026193657697379  0.5435390360771157  0.4997091323315523   T   T   T
  0.3899392183473826  0.5284544347978394  0.4710232496823615   T   T   T
  0.3868076851418529  0.5301473030091568  0.5163814773069588   T   T   T
  0.4469497293285823  0.4298830184275488  0.5006470104062518   T   T   T
  0.5089784151960530  0.4351242359524655  0.5035166976783699   T   T   T
 
  0.00000000E+00  0.00000000E+00  0.00000000E+00
  0.00000000E+00  0.00000000E+00  0.00000000E+00
  0.00000000E+00  0.00000000E+00  0.00000000E+00
  0.00000000E+00  0.00000000E+00  0.00000000E+00
  0.00000000E+00  0.00000000E+00  0.00000000E+00
  0.00000000E+00  0.00000000E+00  0.00000000E+00
  0.00000000E+00  0.00000000E+00  0.00000000E+00
  0.00000000E+00  0.00000000E+00  0.00000000E+00
  0.00000000E+00  0.00000000E+00  0.00000000E+00
  0.00000000E+00  0.00000000E+00  0.00000000E+00
  0.00000000E+00  0.00000000E+00  0.00000000E+00
  0.00000000E+00  0.00000000E+00  0.00000000E+00
  0.00000000E+00  0.00000000E+00  0.00000000E+00
  0.00000000E+00  0.00000000E+00  0.00000000E+00
  0.00000000E+00  0.00000000E+00  0.00000000E+00
  0.00000000E+00  0.00000000E+00  0.00000000E+00
  0.00000000E+00  0.00000000E+00  0.00000000E+00
  0.00000000E+00  0.00000000E+00  0.00000000E+00
  0.00000000E+00  0.00000000E+00  0.00000000E+00
  0.00000000E+00  0.00000000E+00  0.00000000E+00
  0.00000000E+00  0.00000000E+00  0.00000000E+00
  0.00000000E+00  0.00000000E+00  0.00000000E+00
