C N O H                                 
   1.00000000000000     
    40.0000000000000000    0.0000000000000000    0.0000000000000000
     0.0000000000000000   40.0000000000000000    0.0000000000000000
     0.0000000000000000    0.0000000000000000   40.0000000000000000
   C    N    O    H 
     9     1     2     7
Selective dynamics
Direct
  0.5169405605401338  0.4640783757801467  0.5000002972196140   T   T   T
  0.5512661252851950  0.4665505672508263  0.5000009258238884   T   T   T
  0.5673604451402616  0.4986540436796649  0.4999938261659660   T   T   T
  0.5464768227575107  0.5278682810017686  0.4999921892175145   T   T   T
  0.5121513877723070  0.5250876944376696  0.4999940144584333   T   T   T
  0.4959083985630225  0.4931052770314154  0.4999997271626848   T   T   T
  0.4601590123984415  0.4889802779635538  0.5000025400806132   T   T   T
  0.4071278296176418  0.5166502800400296  0.5000072998265177   T   T   T
  0.6022601772806236  0.5013532112398611  0.4999960393881159   T   T   T
  0.6317719662746724  0.5035972379966652  0.4999937816496450   T   T   T
  0.4446030175206926  0.4618034939271134  0.5000036001472949   T   T   T
  0.4429714022651770  0.5192899983820269  0.5000065493563337   T   T   T
  0.3981646641985692  0.5034076430556250  0.4776472479309046   T   T   T
  0.3978770545369176  0.5424423233503052  0.5000187042718244   T   T   T
  0.3981669381789154  0.5033876535881934  0.5223562701948448   T   T   T
  0.4969699817547309  0.5477301613004305  0.4999953871207816   T   T   T
  0.5581264878179715  0.5525551268864923  0.4999919864910082   T   T   T
  0.5665905134741417  0.4439641970802675  0.4999985299118194   T   T   T
  0.5051072146230740  0.4394951560079134  0.5000010835822170   T   T   T
 
  0.00000000E+00  0.00000000E+00  0.00000000E+00
  0.00000000E+00  0.00000000E+00  0.00000000E+00
  0.00000000E+00  0.00000000E+00  0.00000000E+00
  0.00000000E+00  0.00000000E+00  0.00000000E+00
  0.00000000E+00  0.00000000E+00  0.00000000E+00
  0.00000000E+00  0.00000000E+00  0.00000000E+00
  0.00000000E+00  0.00000000E+00  0.00000000E+00
  0.00000000E+00  0.00000000E+00  0.00000000E+00
  0.00000000E+00  0.00000000E+00  0.00000000E+00
  0.00000000E+00  0.00000000E+00  0.00000000E+00
  0.00000000E+00  0.00000000E+00  0.00000000E+00
  0.00000000E+00  0.00000000E+00  0.00000000E+00
  0.00000000E+00  0.00000000E+00  0.00000000E+00
  0.00000000E+00  0.00000000E+00  0.00000000E+00
  0.00000000E+00  0.00000000E+00  0.00000000E+00
  0.00000000E+00  0.00000000E+00  0.00000000E+00
  0.00000000E+00  0.00000000E+00  0.00000000E+00
  0.00000000E+00  0.00000000E+00  0.00000000E+00
  0.00000000E+00  0.00000000E+00  0.00000000E+00
