!r2SCANh freq aug-cc-pVTZ d3 TightSCF SlowConv RIJCOSX defgrid2

%pal
nprocs 12
end

%scf
MaxIter 1500
end

%maxcore 5000

!CPCM
%cpcm smd true
SMDsolvent "MeCN"
surfacetype gepol_ses
rsolv 2.19
end 

* xyz 1 2
C          -0.22399642270064     -1.23718661443115     -0.03912800535607
C           1.14126676954659     -1.22168962309004      0.00222337769903
C           1.83401750028814     -0.00003911773010      0.02318012405605
C           1.14130994145843      1.22163673294070      0.00222799813539
C          -0.22395215378644      1.23718059997669     -0.03913531478612
C          -0.93180734604038      0.00000902891271     -0.05980084503908
N          -2.25078206624055      0.00003085258265     -0.09805402548754
H          -2.77388696694565      0.86352388498415     -0.11458464132867
H          -2.77391607787280     -0.86344516850113     -0.11457505052765
H          -0.78418090174284      2.16118721512492     -0.05638526787170
H           1.69204260751496      2.15041632009284      0.01869246812679
H           2.91374623148226     -0.00006021708029      0.05514256963886
H           1.69196568705163     -2.15048953253659      0.01868288600748
H          -0.78425850201272     -2.16117436124535     -0.05636147326678
*
