C O H                                   
   1.00000000000000     
    40.0000000000000000    0.0000000000000000    0.0000000000000000
     0.0000000000000000   40.0000000000000000    0.0000000000000000
     0.0000000000000000    0.0000000000000000   40.0000000000000000
   C    O    H 
     8     1     8
Selective dynamics
Direct
  0.5103489023927281  0.4765133266925545  0.4999898557788711   T   T   T
  0.5452756525294262  0.4758619812740150  0.4999966170413686   T   T   T
  0.5633723478764026  0.5057867343231663  0.5000053381908671   T   T   T
  0.5464624691641191  0.5364691136392636  0.5000027878324715   T   T   T
  0.5116524746589945  0.5371343480384354  0.4999944652540904   T   T   T
  0.4931482028383485  0.5072066470549146  0.4999956238162042   T   T   T
  0.4557620400227549  0.5091713894250489  0.4999926639812386   T   T   T
  0.4357100596738590  0.4772085479290027  0.5000039444755657   T   T   T
  0.4414975967712209  0.5366553196686894  0.4999973985599624   T   T   T
  0.4090023599064452  0.4832230720075472  0.5000048648568338   T   T   T
  0.4416894465430943  0.4619752833375372  0.5221052313122101   T   T   T
  0.4416848798358473  0.4619661006506419  0.4779088663391917   T   T   T
  0.4981595039665763  0.5608218535735929  0.4999947557340292   T   T   T
  0.5605098738795036  0.5598342280686168  0.5000075059608520   T   T   T
  0.5906456110172726  0.5052563597398105  0.5000136117272618   T   T   T
  0.5584241078091949  0.4519713955897728  0.5000002611880845   T   T   T
  0.4966554711142166  0.4529442989874184  0.4999852079508997   T   T   T
 
  0.00000000E+00  0.00000000E+00  0.00000000E+00
  0.00000000E+00  0.00000000E+00  0.00000000E+00
  0.00000000E+00  0.00000000E+00  0.00000000E+00
  0.00000000E+00  0.00000000E+00  0.00000000E+00
  0.00000000E+00  0.00000000E+00  0.00000000E+00
  0.00000000E+00  0.00000000E+00  0.00000000E+00
  0.00000000E+00  0.00000000E+00  0.00000000E+00
  0.00000000E+00  0.00000000E+00  0.00000000E+00
  0.00000000E+00  0.00000000E+00  0.00000000E+00
  0.00000000E+00  0.00000000E+00  0.00000000E+00
  0.00000000E+00  0.00000000E+00  0.00000000E+00
  0.00000000E+00  0.00000000E+00  0.00000000E+00
  0.00000000E+00  0.00000000E+00  0.00000000E+00
  0.00000000E+00  0.00000000E+00  0.00000000E+00
  0.00000000E+00  0.00000000E+00  0.00000000E+00
  0.00000000E+00  0.00000000E+00  0.00000000E+00
  0.00000000E+00  0.00000000E+00  0.00000000E+00
