C O H                                   
   1.00000000000000     
    40.0000000000000000    0.0000000000000000    0.0000000000000000
     0.0000000000000000   40.0000000000000000    0.0000000000000000
     0.0000000000000000    0.0000000000000000   40.0000000000000000
   C    O    H 
     8     1     6
Selective dynamics
Direct
  0.5175746700875331  0.4608856039555234  0.5000000000000000   T   T   T
  0.5481147902870132  0.4778626360291825  0.5000000000000000   T   T   T
  0.5494908637306608  0.5130674093249528  0.5000000000000000   T   T   T
  0.5204969250713949  0.5324378827143855  0.5000000000000000   T   T   T
  0.4894448034438750  0.5159765175587860  0.5000000000000000   T   T   T
  0.4890182520018067  0.4806882297915815  0.5000000000000000   T   T   T
  0.4365138745843526  0.4974879357843601  0.5000000000000000   T   T   T
  0.4548536999464963  0.5261241508663729  0.5000000000000000   T   T   T
  0.4565062465498712  0.4692369706842192  0.5000000000000000   T   T   T
  0.4449643270108598  0.5513749067802656  0.5000000000000000   T   T   T
  0.4098520044783196  0.4926209523121538  0.5000009999999975   T   T   T
  0.5219040548437101  0.5596507855374092  0.5000000000000000   T   T   T
  0.5738276841067479  0.5253458176183030  0.5000000000000000   T   T   T
  0.5713007500543775  0.4635438037516935  0.5000000000000000   T   T   T
  0.5161360538029839  0.4336953972908135  0.5000000000000000   T   T   T
 
  0.00000000E+00  0.00000000E+00  0.00000000E+00
  0.00000000E+00  0.00000000E+00  0.00000000E+00
  0.00000000E+00  0.00000000E+00  0.00000000E+00
  0.00000000E+00  0.00000000E+00  0.00000000E+00
  0.00000000E+00  0.00000000E+00  0.00000000E+00
  0.00000000E+00  0.00000000E+00  0.00000000E+00
  0.00000000E+00  0.00000000E+00  0.00000000E+00
  0.00000000E+00  0.00000000E+00  0.00000000E+00
  0.00000000E+00  0.00000000E+00  0.00000000E+00
  0.00000000E+00  0.00000000E+00  0.00000000E+00
  0.00000000E+00  0.00000000E+00  0.00000000E+00
  0.00000000E+00  0.00000000E+00  0.00000000E+00
  0.00000000E+00  0.00000000E+00  0.00000000E+00
  0.00000000E+00  0.00000000E+00  0.00000000E+00
  0.00000000E+00  0.00000000E+00  0.00000000E+00
