!r2SCAN freq aug-cc-pVTZ d3 TightSCF SlowConv RIJCOSX defgrid2

%pal
nprocs 12
end

%scf
MaxIter 1500
end

%maxcore 5000

!CPCM
%cpcm smd true
SMDsolvent "MeCN"
surfacetype gepol_ses
rsolv 2.19
end 

* xyz -1 2
C          -1.17278171550795     -1.25393556806539     -0.00049761022766
C          -2.51653902591233     -0.94655888951165     -0.00058537451949
C          -2.96062889319484      0.38608630567311     -0.00021660364140
C          -1.99715961091731      1.40957760410147      0.00033484018253
C          -0.64624679830210      1.12996349347095      0.00045835154382
C          -0.17467117385781     -0.21878943686286      0.00001960777785
C           1.16977968256552     -0.63326106929435      0.00027411586469
O           1.69863351533822     -1.73416004730160      0.00019771819063
Cl          2.43262649368797      0.86147624082259      0.00010301176055
H           0.07100790489712      1.93942259339865      0.00121931829374
H          -2.31749563809703      2.44672454580346      0.00118794638948
H          -4.01842654132869      0.61877549691892     -0.00006672734212
H          -3.24130280397611     -1.75493942298438     -0.00101521130437
H          -0.84747269539465     -2.28737184616893     -0.00086788296824
*
