!PBE0 def2-SV(p) Opt Freq d3 TightSCF SlowConv RIJCOSX defgrid2
 
%pal
nprocs 4
end
 
%scf
MaxIter 1500
end
 
%maxcore 3000
 

 
* xyz 1 2
C     1.5412055   -1.1803027   -0.3277905 
C     2.9173652   -1.1606303   -0.3418265 
C     3.6086195   -0.0034310    0.0083141 
C     2.9036596    1.1514597    0.3466001 
C     1.5280923    1.1507741    0.3382370 
C     0.8077475   -0.0178727    0.0047912 
C    -0.6345265   -0.0096612   -0.0206138 
C    -1.3459520   -1.1637400    0.2383405 
C    -2.8002998   -1.2226248    0.3663459 
C    -3.5108180    0.1219154    0.2928396 
C    -2.8061686    1.0187894   -0.7181841 
C    -1.3674159    1.2643794   -0.2648557 
H    -0.8351268    1.8718620   -0.9992065 
H    -1.3859588    1.8379380    0.6712816 
H    -3.3267581    1.9715357   -0.8079136 
H    -2.8061333    0.5422174   -1.7000062 
H    -4.5559613   -0.0199906    0.0189629 
H    -3.4928813    0.5973594    1.2769244 
H    -3.1485540   -1.8774743   -0.4517965 
H    -3.0741755   -1.7815794    1.2702126 
H    -0.8169844   -2.0902405    0.4110783 
H     0.9962839    2.0406856    0.6337586 
H     3.4407589    2.0444136    0.6257683 
H     4.6874468   -0.0015235    0.0232469 
H     3.4638698   -2.0461101   -0.6276609 
H     1.0263349   -2.0737996   -0.6421723
*
