C O H                                   
   1.00000000000000     
    40.0000000000000000    0.0000000000000000    0.0000000000000000
     0.0000000000000000   40.0000000000000000    0.0000000000000000
     0.0000000000000000    0.0000000000000000   40.0000000000000000
   C    O    H 
     8     1     6
Selective dynamics
Direct
  0.5168090457774659  0.4607861207124055  0.5000000000000000   T   T   T
  0.5475616621106815  0.4783308542714860  0.5000000000000000   T   T   T
  0.5493058240675831  0.5134779259015632  0.5000000000000000   T   T   T
  0.5206951148737902  0.5327254774649632  0.5000000000000000   T   T   T
  0.4894300049181355  0.5158281307321835  0.5000000000000000   T   T   T
  0.4890450184418644  0.4803807159883434  0.5000000000000000   T   T   T
  0.4369930540757902  0.4965581982180654  0.5000000000000000   T   T   T
  0.4561173734465938  0.5260747417913246  0.5000000000000000   T   T   T
  0.4560624930168120  0.4692465338616378  0.5000000000000000   T   T   T
  0.4460563925664137  0.5510756491917331  0.5000000000000000   T   T   T
  0.4103428544370191  0.4926370305128643  0.5000009999999975   T   T   T
  0.5216953614724223  0.5597583289892369  0.5000000000000000   T   T   T
  0.5736093690061035  0.5253590871761821  0.5000000000000000   T   T   T
  0.5705054851679099  0.4639865089226105  0.5000000000000000   T   T   T
  0.5157699466214110  0.4337736962654102  0.5000000000000000   T   T   T
 
  0.00000000E+00  0.00000000E+00  0.00000000E+00
  0.00000000E+00  0.00000000E+00  0.00000000E+00
  0.00000000E+00  0.00000000E+00  0.00000000E+00
  0.00000000E+00  0.00000000E+00  0.00000000E+00
  0.00000000E+00  0.00000000E+00  0.00000000E+00
  0.00000000E+00  0.00000000E+00  0.00000000E+00
  0.00000000E+00  0.00000000E+00  0.00000000E+00
  0.00000000E+00  0.00000000E+00  0.00000000E+00
  0.00000000E+00  0.00000000E+00  0.00000000E+00
  0.00000000E+00  0.00000000E+00  0.00000000E+00
  0.00000000E+00  0.00000000E+00  0.00000000E+00
  0.00000000E+00  0.00000000E+00  0.00000000E+00
  0.00000000E+00  0.00000000E+00  0.00000000E+00
  0.00000000E+00  0.00000000E+00  0.00000000E+00
  0.00000000E+00  0.00000000E+00  0.00000000E+00
