!r2SCAN freq aug-cc-pVTZ d3 TightSCF SlowConv RIJCOSX defgrid2

%pal
nprocs 12
end

%scf
MaxIter 1500
end

%maxcore 5000

!CPCM
%cpcm smd true
SMDsolvent "MeCN"
surfacetype gepol_ses
rsolv 2.19
end 

* xyz 0 1
C           0.93942428661502     -1.26810109774645     -0.00015157932141
C           2.30872559857588     -1.03109154021365     -0.00058788714425
C           2.78910711744814      0.27359223675244     -0.00036843406844
C           1.89189712201250      1.34223004856964      0.00043890002790
C           0.52593880299877      1.11157479884994      0.00080976491356
C           0.03225431386771     -0.20173839077500      0.00038300937010
C          -1.39152501210631     -0.50779847232216      0.00060976146895
N          -2.27416444444970      0.41751576691135     -0.00156892313612
O          -3.56896224991841     -0.12197444677375     -0.00051396676830
H          -4.13025402339185      0.66727999414558     -0.00182655056489
H          -1.69102647224433     -1.55687353354248      0.00291603981801
H          -0.16764560601252      1.94324255282134      0.00160227312758
H           2.26416810760325      2.36004117007354      0.00024768271711
H           3.85634926541052      0.46077285425924     -0.00095342297794
H           2.99960613475906     -1.86581135846164     -0.00104625435386
H           0.56380145883230     -2.28545888254797      0.00021698689200
*
