C Cl O H                                
   1.00000000000000     
    40.0000000000000000    0.0000000000000000    0.0000000000000000
     0.0000000000000000   40.0000000000000000    0.0000000000000000
     0.0000000000000000    0.0000000000000000   40.0000000000000000
   C    Cl   O    H 
     8     1     1     7
Selective dynamics
Direct
  0.5095996130717024  0.5232114935559856  0.5000146019145102   T   T   T
  0.5441272929873096  0.5237509292678786  0.5000060176830255   T   T   T
  0.5620197691807250  0.4935918953570630  0.4999956970122418   T   T   T
  0.5449441371435402  0.4629302264896856  0.4999967102904967   T   T   T
  0.5104912122365719  0.4624989253595205  0.5000014910047376   T   T   T
  0.4910855444400208  0.4926148656482710  0.5000089403288915   T   T   T
  0.4553860800885027  0.4910641582097139  0.5000055804637592   T   T   T
  0.4357613821282166  0.5236407783406258  0.4999922480578671   T   T   T
  0.6057105248281633  0.4941878058093669  0.4999896976903048   T   T   T
  0.4392309933742846  0.4635708811917641  0.5000061760162141   T   T   T
  0.4411637845371572  0.5391801120740016  0.5219467949123560   T   T   T
  0.4411923546972151  0.5391731697324386  0.4780397042059048   T   T   T
  0.4091892655783091  0.5176450053142715  0.4999759346987652   T   T   T
  0.4970570064785975  0.4389646681390214  0.5000002646000236   T   T   T
  0.5590650246659062  0.4397598073782815  0.4999883069627433   T   T   T
  0.5575643314570050  0.5473128225700956  0.5000109883797237   T   T   T
  0.4964106831067892  0.5469044555620595  0.5000218457784108   T   T   T
 
  0.00000000E+00  0.00000000E+00  0.00000000E+00
  0.00000000E+00  0.00000000E+00  0.00000000E+00
  0.00000000E+00  0.00000000E+00  0.00000000E+00
  0.00000000E+00  0.00000000E+00  0.00000000E+00
  0.00000000E+00  0.00000000E+00  0.00000000E+00
  0.00000000E+00  0.00000000E+00  0.00000000E+00
  0.00000000E+00  0.00000000E+00  0.00000000E+00
  0.00000000E+00  0.00000000E+00  0.00000000E+00
  0.00000000E+00  0.00000000E+00  0.00000000E+00
  0.00000000E+00  0.00000000E+00  0.00000000E+00
  0.00000000E+00  0.00000000E+00  0.00000000E+00
  0.00000000E+00  0.00000000E+00  0.00000000E+00
  0.00000000E+00  0.00000000E+00  0.00000000E+00
  0.00000000E+00  0.00000000E+00  0.00000000E+00
  0.00000000E+00  0.00000000E+00  0.00000000E+00
  0.00000000E+00  0.00000000E+00  0.00000000E+00
  0.00000000E+00  0.00000000E+00  0.00000000E+00
