C N H                                   
   1.00000000000000     
    40.0000000000000000    0.0000000000000000    0.0000000000000000
     0.0000000000000000   40.0000000000000000    0.0000000000000000
     0.0000000000000000    0.0000000000000000   40.0000000000000000
   C    N    H 
    12     1    11
Selective dynamics
Direct
  0.4408112768997319  0.4693742905456275  0.5112639808219737   T   T   T
  0.4087483027516151  0.4829328990972297  0.5101978880222974   T   T   T
  0.4034598130964021  0.5151923239337397  0.4977790937541329   T   T   T
  0.4308258465801182  0.5334478997439426  0.4859962485700881   T   T   T
  0.4630197533925047  0.5200504327597637  0.4866198062888402   T   T   T
  0.4684976537487281  0.4877548179414486  0.4995501983598077   T   T   T
  0.5315023462512718  0.4877548179414486  0.5004488016401877   T   T   T
  0.5369802466074953  0.5200504327597637  0.5133791937111624   T   T   T
  0.5691741534198820  0.5334478997439426  0.5140037514299121   T   T   T
  0.5965401869035979  0.5151913239337422  0.5022209062458672   T   T   T
  0.5912516972483849  0.4829318990972251  0.4898031119777071   T   T   T
  0.5591887231002680  0.4693732905456300  0.4887370191780239   T   T   T
  0.5000000000000000  0.4727016476418168  0.5000000000000000   T   T   T
  0.5552220802555692  0.4443006560580560  0.4786904073095353   T   T   T
  0.6122514300251473  0.4681881781570955  0.4805918979474610   T   T   T
  0.6215959126302923  0.5258719264621877  0.5028269180519340   T   T   T
  0.5728402404356019  0.5584606810131140  0.5242457312806794   T   T   T
  0.5161909868427902  0.5344020591830696  0.5235289677217718   T   T   T
  0.5000000000000000  0.4473470225676386  0.5000000000000000   T   T   T
  0.4838090131572099  0.5344020591830696  0.4764700322782234   T   T   T
  0.4271597595643983  0.5584606810131140  0.4757542687193205   T   T   T
  0.3784040873697075  0.5258729264621852  0.4971740819480636   T   T   T
  0.3877485699748526  0.4681891781571001  0.5194091020525364   T   T   T
  0.4447779197444307  0.4443006560580560  0.5213095926904647   T   T   T
 
  0.00000000E+00  0.00000000E+00  0.00000000E+00
  0.00000000E+00  0.00000000E+00  0.00000000E+00
  0.00000000E+00  0.00000000E+00  0.00000000E+00
  0.00000000E+00  0.00000000E+00  0.00000000E+00
  0.00000000E+00  0.00000000E+00  0.00000000E+00
  0.00000000E+00  0.00000000E+00  0.00000000E+00
  0.00000000E+00  0.00000000E+00  0.00000000E+00
  0.00000000E+00  0.00000000E+00  0.00000000E+00
  0.00000000E+00  0.00000000E+00  0.00000000E+00
  0.00000000E+00  0.00000000E+00  0.00000000E+00
  0.00000000E+00  0.00000000E+00  0.00000000E+00
  0.00000000E+00  0.00000000E+00  0.00000000E+00
  0.00000000E+00  0.00000000E+00  0.00000000E+00
  0.00000000E+00  0.00000000E+00  0.00000000E+00
  0.00000000E+00  0.00000000E+00  0.00000000E+00
  0.00000000E+00  0.00000000E+00  0.00000000E+00
  0.00000000E+00  0.00000000E+00  0.00000000E+00
  0.00000000E+00  0.00000000E+00  0.00000000E+00
  0.00000000E+00  0.00000000E+00  0.00000000E+00
  0.00000000E+00  0.00000000E+00  0.00000000E+00
  0.00000000E+00  0.00000000E+00  0.00000000E+00
  0.00000000E+00  0.00000000E+00  0.00000000E+00
  0.00000000E+00  0.00000000E+00  0.00000000E+00
  0.00000000E+00  0.00000000E+00  0.00000000E+00
