C H                                     
   1.00000000000000     
    40.0000000000000000    0.0000000000000000    0.0000000000000000
     0.0000000000000000   40.0000000000000000    0.0000000000000000
     0.0000000000000000    0.0000000000000000   40.0000000000000000
   C    H 
    10     8
Selective dynamics
Direct
  0.5608892696305139  0.4822744363148879  0.5000000000000000   T   T   T
  0.5608892696305139  0.5177245636851077  0.5000000000000000   T   T   T
  0.5311071894974926  0.5351794343653777  0.5000000000000000   T   T   T
  0.5000000000000000  0.5179894067268123  0.5000000000000000   T   T   T
  0.4688928105025075  0.5351794343653777  0.5000000000000000   T   T   T
  0.4391107303694862  0.5177255636851122  0.5000000000000000   T   T   T
  0.4391107303694862  0.4822754363148924  0.5000000000000000   T   T   T
  0.4688928105025075  0.4648205656346224  0.5000000000000000   T   T   T
  0.5000000000000000  0.4820105932731947  0.5000000000000000   T   T   T
  0.5311071894974926  0.4648205656346224  0.5000000000000000   T   T   T
  0.5311064177273285  0.4375153097857467  0.5000000000000000   T   T   T
  0.4688925822726739  0.4375163097857442  0.5000000000000000   T   T   T
  0.4153674815567830  0.4688342678499890  0.5000000000000000   T   T   T
  0.4153684815567876  0.5311667321500156  0.5000000000000000   T   T   T
  0.4688935822726714  0.5624846902142532  0.5000000000000000   T   T   T
  0.5311074177273259  0.5624836902142557  0.5000000000000000   T   T   T
  0.5846325184432171  0.5311657321500111  0.5000000000000000   T   T   T
  0.5846315184432125  0.4688332678499844  0.5000000000000000   T   T   T
 
  0.00000000E+00  0.00000000E+00  0.00000000E+00
  0.00000000E+00  0.00000000E+00  0.00000000E+00
  0.00000000E+00  0.00000000E+00  0.00000000E+00
  0.00000000E+00  0.00000000E+00  0.00000000E+00
  0.00000000E+00  0.00000000E+00  0.00000000E+00
  0.00000000E+00  0.00000000E+00  0.00000000E+00
  0.00000000E+00  0.00000000E+00  0.00000000E+00
  0.00000000E+00  0.00000000E+00  0.00000000E+00
  0.00000000E+00  0.00000000E+00  0.00000000E+00
  0.00000000E+00  0.00000000E+00  0.00000000E+00
  0.00000000E+00  0.00000000E+00  0.00000000E+00
  0.00000000E+00  0.00000000E+00  0.00000000E+00
  0.00000000E+00  0.00000000E+00  0.00000000E+00
  0.00000000E+00  0.00000000E+00  0.00000000E+00
  0.00000000E+00  0.00000000E+00  0.00000000E+00
  0.00000000E+00  0.00000000E+00  0.00000000E+00
  0.00000000E+00  0.00000000E+00  0.00000000E+00
  0.00000000E+00  0.00000000E+00  0.00000000E+00
