!B3LYP aug-cc-pVTZ d3 TightSCF SlowConv RIJCOSX defgrid2
 
%pal
nprocs 4
end
 
%scf
MaxIter 1500
end
 
%maxcore 3000
 
!CPCM
%cpcm smd true
SMDsolvent "MeCN"
surfacetype gepol_ses
rsolv 2.19
end 
 
* xyz 1 2
C          -1.37570161970798      1.24248775146081      0.14964467519830
C          -2.72328606993136      1.33933244972942     -0.12972549489389
C          -3.50332136231250      0.18456023805622     -0.29662204383798
C          -2.90850381676726     -1.08060950224510     -0.17914577968731
C          -1.56009156673199     -1.19946806950118      0.08819160883999
C          -0.74929788406068     -0.03596298254245      0.25549211350325
N           0.58169156042701     -0.14755492533350      0.51923516368239
C           1.35906971560407     -1.35389965269269      0.28665855372844
H           1.88509976437755     -1.61600692768801      1.22001003582768
H           0.72298603517521     -2.19210005080425     -0.01631674285562
C           2.39456488415066     -1.05887336973135     -0.81777740540371
H           1.85949130432221     -0.86633084185637     -1.77045067834009
H           3.04102795891331     -1.94051290095387     -0.94478618718467
O           3.20182115584000      0.01450222304714     -0.46263444369679
C           2.47636872597331      1.18215324578846     -0.25260675546455
H           3.18364575605233      1.96931206906534      0.04942966335265
H           1.95240344881149      1.50557330797809     -1.17560901565404
C           1.44564375796760      0.96716490649827      0.86894476596378
H           0.87103596845838      1.87677062866973      1.07105968779003
H           1.98209056577574      0.68782297194295      1.79196599824839
H          -1.13914062593493     -2.19705534469310      0.21352347531936
H          -3.51569254322193     -1.98314623006578     -0.28645384104721
H          -4.57208793284479      0.27077776097684     -0.51046305441418
H          -3.18143391858996      2.32714955314318     -0.22534185944500
H          -0.79875706174547      2.16114869175120      0.25195876047079
*
