C N H                                   
   1.00000000000000     
    40.0000000000000000    0.0000000000000000    0.0000000000000000
     0.0000000000000000   40.0000000000000000    0.0000000000000000
     0.0000000000000000    0.0000000000000000   40.0000000000000000
   C    N    H 
    12     1    11
Selective dynamics
Direct
  0.4413278169172514  0.4688669635463462  0.5109373041395447   T   T   T
  0.4094850091846136  0.4825170896490176  0.5104182295877318   T   T   T
  0.4044118813504431  0.5149984481908115  0.4980687242793893   T   T   T
  0.4315374981708536  0.5338174606392572  0.4861188931941047   T   T   T
  0.4636584134742073  0.5207644773820447  0.4867384643771711   T   T   T
  0.4688491821079525  0.4881425095882449  0.4995602258470893   T   T   T
  0.5311508178920478  0.4881425095882449  0.5004387741529059   T   T   T
  0.5363415865257927  0.5207644773820447  0.5132605356228314   T   T   T
  0.5684625018291465  0.5338174606392572  0.5138811068058952   T   T   T
  0.5955881186495573  0.5149974481908141  0.5019312757206110   T   T   T
  0.5905149908153863  0.4825160896490130  0.4895827704122730   T   T   T
  0.5586721830827485  0.4688659635463487  0.4890636958604525   T   T   T
  0.5000000000000000  0.4733161169140290  0.5000000000000000   T   T   T
  0.5543472153895159  0.4437576789039155  0.4793841925237632   T   T   T
  0.6116161067084714  0.4678919454316720  0.4804574646222020   T   T   T
  0.6207527635150065  0.5254141188809012  0.5028184791350266   T   T   T
  0.5726324425968350  0.5585984598466878  0.5244280374591972   T   T   T
  0.5156017427147349  0.5347049900281257  0.5240146407463698   T   T   T
  0.5000000000000000  0.4477365989119268  0.5000000000000000   T   T   T
  0.4843982572852654  0.5347049900281257  0.4759843592536256   T   T   T
  0.4273675574031652  0.5585984598466878  0.4755719625408028   T   T   T
  0.3792472364849936  0.5254151188808986  0.4971825208649707   T   T   T
  0.3883838932915286  0.4678929454316765  0.5195435353777952   T   T   T
  0.4456527846104842  0.4437576789039155  0.5206158074762363   T   T   T
 
  0.00000000E+00  0.00000000E+00  0.00000000E+00
  0.00000000E+00  0.00000000E+00  0.00000000E+00
  0.00000000E+00  0.00000000E+00  0.00000000E+00
  0.00000000E+00  0.00000000E+00  0.00000000E+00
  0.00000000E+00  0.00000000E+00  0.00000000E+00
  0.00000000E+00  0.00000000E+00  0.00000000E+00
  0.00000000E+00  0.00000000E+00  0.00000000E+00
  0.00000000E+00  0.00000000E+00  0.00000000E+00
  0.00000000E+00  0.00000000E+00  0.00000000E+00
  0.00000000E+00  0.00000000E+00  0.00000000E+00
  0.00000000E+00  0.00000000E+00  0.00000000E+00
  0.00000000E+00  0.00000000E+00  0.00000000E+00
  0.00000000E+00  0.00000000E+00  0.00000000E+00
  0.00000000E+00  0.00000000E+00  0.00000000E+00
  0.00000000E+00  0.00000000E+00  0.00000000E+00
  0.00000000E+00  0.00000000E+00  0.00000000E+00
  0.00000000E+00  0.00000000E+00  0.00000000E+00
  0.00000000E+00  0.00000000E+00  0.00000000E+00
  0.00000000E+00  0.00000000E+00  0.00000000E+00
  0.00000000E+00  0.00000000E+00  0.00000000E+00
  0.00000000E+00  0.00000000E+00  0.00000000E+00
  0.00000000E+00  0.00000000E+00  0.00000000E+00
  0.00000000E+00  0.00000000E+00  0.00000000E+00
  0.00000000E+00  0.00000000E+00  0.00000000E+00
