C H                                     
   1.00000000000000     
    40.0000000000000000    0.0000000000000000    0.0000000000000000
     0.0000000000000000   40.0000000000000000    0.0000000000000000
     0.0000000000000000    0.0000000000000000   40.0000000000000000
   C    H 
    12    14
Selective dynamics
Direct
  0.5124079997656155  0.4678135653498701  0.4999986357398392   T   T   T
  0.5352066884180465  0.4945902519341189  0.5000010293848222   T   T   T
  0.5218355135330855  0.5270470283038591  0.4999961859581293   T   T   T
  0.4875917216233736  0.5321858095363801  0.4999955401033073   T   T   T
  0.4647942611039041  0.5054089098973935  0.4999973845787522   T   T   T
  0.4781645661224987  0.4729519096363188  0.4999964828957368   T   T   T
  0.4290030255004735  0.5127336951853815  0.4999889272797278   T   T   T
  0.4037027638358189  0.4907333569006661  0.5000088291785861   T   T   T
  0.3676320089664027  0.5001036413631407  0.5000072568981783   T   T   T
  0.5709988894970438  0.4872675100954131  0.5000002602697849   T   T   T
  0.5962973966602256  0.5092663329008886  0.5000004158286031   T   T   T
  0.6323679092523643  0.4998962127578598  0.5000038011713724   T   T   T
  0.4616977689553967  0.4514121846652012  0.4999907133325796   T   T   T
  0.3548536236719045  0.4896845472748708  0.4781244383601059   T   T   T
  0.3641521882146969  0.5271709701416672  0.4999834299008304   T   T   T
  0.3548644827680232  0.4897252432466338  0.5219145424197912   T   T   T
  0.4089749204098030  0.4640457649653104  0.5000316608619381   T   T   T
  0.4227810217155196  0.5392728645443492  0.4999687902150008   T   T   T
  0.4779692277728411  0.5575757747568173  0.4999891957974951   T   T   T
  0.5383023295084360  0.5485866101664745  0.4999907405862895   T   T   T
  0.6451391205617396  0.5102985778183838  0.5218976057653985   T   T   T
  0.6451406954097322  0.5102922906431405  0.4781078406480379   T   T   T
  0.6358453712357358  0.4728303847290049  0.5000077017559424   T   T   T
  0.5910232689079344  0.5359555240832644  0.4999988456177157   T   T   T
  0.5772203454055348  0.4607277397922374  0.5000021109954508   T   T   T
  0.5220328911838422  0.4424242993113663  0.4999966344565241   T   T   T
 
  0.00000000E+00  0.00000000E+00  0.00000000E+00
  0.00000000E+00  0.00000000E+00  0.00000000E+00
  0.00000000E+00  0.00000000E+00  0.00000000E+00
  0.00000000E+00  0.00000000E+00  0.00000000E+00
  0.00000000E+00  0.00000000E+00  0.00000000E+00
  0.00000000E+00  0.00000000E+00  0.00000000E+00
  0.00000000E+00  0.00000000E+00  0.00000000E+00
  0.00000000E+00  0.00000000E+00  0.00000000E+00
  0.00000000E+00  0.00000000E+00  0.00000000E+00
  0.00000000E+00  0.00000000E+00  0.00000000E+00
  0.00000000E+00  0.00000000E+00  0.00000000E+00
  0.00000000E+00  0.00000000E+00  0.00000000E+00
  0.00000000E+00  0.00000000E+00  0.00000000E+00
  0.00000000E+00  0.00000000E+00  0.00000000E+00
  0.00000000E+00  0.00000000E+00  0.00000000E+00
  0.00000000E+00  0.00000000E+00  0.00000000E+00
  0.00000000E+00  0.00000000E+00  0.00000000E+00
  0.00000000E+00  0.00000000E+00  0.00000000E+00
  0.00000000E+00  0.00000000E+00  0.00000000E+00
  0.00000000E+00  0.00000000E+00  0.00000000E+00
  0.00000000E+00  0.00000000E+00  0.00000000E+00
  0.00000000E+00  0.00000000E+00  0.00000000E+00
  0.00000000E+00  0.00000000E+00  0.00000000E+00
  0.00000000E+00  0.00000000E+00  0.00000000E+00
  0.00000000E+00  0.00000000E+00  0.00000000E+00
  0.00000000E+00  0.00000000E+00  0.00000000E+00
