C O H                                   
   1.00000000000000     
    40.0000000000000000    0.0000000000000000    0.0000000000000000
     0.0000000000000000   40.0000000000000000    0.0000000000000000
     0.0000000000000000    0.0000000000000000   40.0000000000000000
   C    O    H 
    10     1    12
Selective dynamics
Direct
  0.4857391260844466  0.5200496829373407  0.4999953434858000   T   T   T
  0.4533252707724458  0.5066624488891591  0.4999987981994920   T   T   T
  0.4487506076548158  0.4719468725219471  0.5000014690605425   T   T   T
  0.4770765270494479  0.4512658254022313  0.5000016422886375   T   T   T
  0.5092245065578709  0.4644221171535676  0.4999990842967463   T   T   T
  0.5140692390388892  0.4994160258509126  0.4999962659706583   T   T   T
  0.5471504789595443  0.5152954971004320  0.4999945334826563   T   T   T
  0.5771240990830364  0.5000531095713399  0.5000027253968469   T   T   T
  0.6099966509224330  0.5178180189717523  0.5000000198855616   T   T   T
  0.3943317981141661  0.5173264558275434  0.5000035868751240   T   T   T
  0.4278989539038207  0.5296817357683778  0.4999995614621682   T   T   T
  0.6250463838741780  0.5108736664325733  0.4779908219853155   T   T   T
  0.6250426247017558  0.5108879367027939  0.5220162468274907   T   T   T
  0.6068383157611592  0.5450973860317134  0.4999907553637968   T   T   T
  0.5783419893068356  0.4727055237547049  0.5000115667321410   T   T   T
  0.5467926419700717  0.5427076083594997  0.4999861114642883   T   T   T
  0.5306222115473176  0.4475398343182064  0.4999980113889251   T   T   T
  0.4736055307946216  0.4242124112816157  0.5000020849224853   T   T   T
  0.4239073893597194  0.4608734538070465  0.5000027797612319   T   T   T
  0.3782266831916203  0.5394519512251605  0.5000037686372707   T   T   T
  0.3891586642216112  0.5022627640201307  0.5224746772284519   T   T   T
  0.3891543515166092  0.5022604055919402  0.4775358183030747   T   T   T
  0.4885759556136193  0.5471892684800110  0.4999943269812874   T   T   T
 
  0.00000000E+00  0.00000000E+00  0.00000000E+00
  0.00000000E+00  0.00000000E+00  0.00000000E+00
  0.00000000E+00  0.00000000E+00  0.00000000E+00
  0.00000000E+00  0.00000000E+00  0.00000000E+00
  0.00000000E+00  0.00000000E+00  0.00000000E+00
  0.00000000E+00  0.00000000E+00  0.00000000E+00
  0.00000000E+00  0.00000000E+00  0.00000000E+00
  0.00000000E+00  0.00000000E+00  0.00000000E+00
  0.00000000E+00  0.00000000E+00  0.00000000E+00
  0.00000000E+00  0.00000000E+00  0.00000000E+00
  0.00000000E+00  0.00000000E+00  0.00000000E+00
  0.00000000E+00  0.00000000E+00  0.00000000E+00
  0.00000000E+00  0.00000000E+00  0.00000000E+00
  0.00000000E+00  0.00000000E+00  0.00000000E+00
  0.00000000E+00  0.00000000E+00  0.00000000E+00
  0.00000000E+00  0.00000000E+00  0.00000000E+00
  0.00000000E+00  0.00000000E+00  0.00000000E+00
  0.00000000E+00  0.00000000E+00  0.00000000E+00
  0.00000000E+00  0.00000000E+00  0.00000000E+00
  0.00000000E+00  0.00000000E+00  0.00000000E+00
  0.00000000E+00  0.00000000E+00  0.00000000E+00
  0.00000000E+00  0.00000000E+00  0.00000000E+00
  0.00000000E+00  0.00000000E+00  0.00000000E+00
