C H                                     
   1.00000000000000     
    40.0000000000000000    0.0000000000000000    0.0000000000000000
     0.0000000000000000   40.0000000000000000    0.0000000000000000
     0.0000000000000000    0.0000000000000000   40.0000000000000000
   C    H 
    14    10
Selective dynamics
Direct
  0.6035513637248258  0.5302904058805069  0.5000048968064803   T   T   T
  0.6211057832843636  0.5000017744279646  0.4999966095495481   T   T   T
  0.6035519190187557  0.4697106274648561  0.4999904791180469   T   T   T
  0.5686994751744621  0.4695521015760136  0.4999930014596643   T   T   T
  0.5507699358174776  0.5000000897443044  0.5000007686665597   T   T   T
  0.5686971268106902  0.5304479964617457  0.5000075870303178   T   T   T
  0.5152807874591687  0.4999973998336742  0.5000060696354538   T   T   T
  0.4847193339803653  0.4999958715752513  0.5000085372561713   T   T   T
  0.4492295744161723  0.4999997535710321  0.5000042094954722   T   T   T
  0.4312999274975979  0.4695507442774201  0.5000106164423741   T   T   T
  0.3964487006410593  0.4697096018543832  0.5000061959515634   T   T   T
  0.3788939810208660  0.5000010703315922  0.4999969634712684   T   T   T
  0.3964492580149539  0.5302893026003730  0.4999920015563859   T   T   T
  0.4313032051490282  0.5304465379537078  0.4999958172557299   T   T   T
  0.5549388673145543  0.5539845713546683  0.5000118242769389   T   T   T
  0.4450615081158560  0.5539829882681673  0.4999928923815489   T   T   T
  0.3828796920665454  0.5539523258417489  0.4999859106004791   T   T   T
  0.3516142052339575  0.5000029845975504  0.4999941273596278   T   T   T
  0.3828741572909493  0.4460507846676336  0.5000080331648249   T   T   T
  0.4450565088418585  0.4460123340804643  0.5000150027198629   T   T   T
  0.5549426929932082  0.4460139243944283  0.4999905164385439   T   T   T
  0.6171247279024783  0.4460510966498958  0.4999857470305429   T   T   T
  0.6483855777745049  0.5000030045376604  0.4999952442372617   T   T   T
  0.6171206904563178  0.5539527080549647  0.5000079480953232   T   T   T
 
  0.00000000E+00  0.00000000E+00  0.00000000E+00
  0.00000000E+00  0.00000000E+00  0.00000000E+00
  0.00000000E+00  0.00000000E+00  0.00000000E+00
  0.00000000E+00  0.00000000E+00  0.00000000E+00
  0.00000000E+00  0.00000000E+00  0.00000000E+00
  0.00000000E+00  0.00000000E+00  0.00000000E+00
  0.00000000E+00  0.00000000E+00  0.00000000E+00
  0.00000000E+00  0.00000000E+00  0.00000000E+00
  0.00000000E+00  0.00000000E+00  0.00000000E+00
  0.00000000E+00  0.00000000E+00  0.00000000E+00
  0.00000000E+00  0.00000000E+00  0.00000000E+00
  0.00000000E+00  0.00000000E+00  0.00000000E+00
  0.00000000E+00  0.00000000E+00  0.00000000E+00
  0.00000000E+00  0.00000000E+00  0.00000000E+00
  0.00000000E+00  0.00000000E+00  0.00000000E+00
  0.00000000E+00  0.00000000E+00  0.00000000E+00
  0.00000000E+00  0.00000000E+00  0.00000000E+00
  0.00000000E+00  0.00000000E+00  0.00000000E+00
  0.00000000E+00  0.00000000E+00  0.00000000E+00
  0.00000000E+00  0.00000000E+00  0.00000000E+00
  0.00000000E+00  0.00000000E+00  0.00000000E+00
  0.00000000E+00  0.00000000E+00  0.00000000E+00
  0.00000000E+00  0.00000000E+00  0.00000000E+00
  0.00000000E+00  0.00000000E+00  0.00000000E+00
