C N H                                   
   1.00000000000000     
    40.0000000000000000    0.0000000000000000    0.0000000000000000
     0.0000000000000000   40.0000000000000000    0.0000000000000000
     0.0000000000000000    0.0000000000000000   40.0000000000000000
   C    N    H 
     6     2     8
Selective dynamics
Direct
  0.4812219283358914  0.5352589774510150  0.4992320752974848   T   T   T
  0.4516144591749480  0.5178043669709638  0.4997455183912365   T   T   T
  0.4516125182806690  0.4821959537298355  0.5002570762616116   T   T   T
  0.4812217177412208  0.4647416562278437  0.5007701984512209   T   T   T
  0.5124686259614677  0.4817676816348921  0.5007988601844389   T   T   T
  0.5124704403643392  0.5182325902039580  0.4992033840980667   T   T   T
  0.5410416901426061  0.4642619699330268  0.5023403841343708   T   T   T
  0.5410428152374962  0.5357380065707247  0.4976565753569702   T   T   T
  0.5640408287893237  0.4747949971156018  0.5039192634484522   T   T   T
  0.5403042949146197  0.4388914299274660  0.5034184305610623   T   T   T
  0.5640422200362494  0.5252023484962081  0.4960793983065344   T   T   T
  0.5403071237460466  0.5611084064583451  0.4965800743346236   T   T   T
  0.4813615604681658  0.4374929264022995  0.5015419794983629   T   T   T
  0.4279428745138674  0.4687148191362098  0.5003837569654124   T   T   T
  0.4279443480868608  0.5312865576040551  0.4996147221475127   T   T   T
  0.4813625542062283  0.5625073121375692  0.4984573025626560   T   T   T
 
  0.00000000E+00  0.00000000E+00  0.00000000E+00
  0.00000000E+00  0.00000000E+00  0.00000000E+00
  0.00000000E+00  0.00000000E+00  0.00000000E+00
  0.00000000E+00  0.00000000E+00  0.00000000E+00
  0.00000000E+00  0.00000000E+00  0.00000000E+00
  0.00000000E+00  0.00000000E+00  0.00000000E+00
  0.00000000E+00  0.00000000E+00  0.00000000E+00
  0.00000000E+00  0.00000000E+00  0.00000000E+00
  0.00000000E+00  0.00000000E+00  0.00000000E+00
  0.00000000E+00  0.00000000E+00  0.00000000E+00
  0.00000000E+00  0.00000000E+00  0.00000000E+00
  0.00000000E+00  0.00000000E+00  0.00000000E+00
  0.00000000E+00  0.00000000E+00  0.00000000E+00
  0.00000000E+00  0.00000000E+00  0.00000000E+00
  0.00000000E+00  0.00000000E+00  0.00000000E+00
  0.00000000E+00  0.00000000E+00  0.00000000E+00
