C O H                                   
   1.00000000000000     
    40.0000000000000000    0.0000000000000000    0.0000000000000000
     0.0000000000000000   40.0000000000000000    0.0000000000000000
     0.0000000000000000    0.0000000000000000   40.0000000000000000
   C    O    H 
    12     1    10
Selective dynamics
Direct
  0.5342017860098238  0.4868925822497943  0.5197879230060920   T   T   T
  0.5656332483703110  0.4717615720134631  0.5209709107596439   T   T   T
  0.5927628428184732  0.4855933453203960  0.5038058745969991   T   T   T
  0.5882902868877338  0.5149262139278861  0.4853239971610108   T   T   T
  0.5569464320840964  0.5302315539491076  0.4837563509075693   T   T   T
  0.5300192315716856  0.5160905342608544  0.5009620207353009   T   T   T
  0.4699805036387161  0.5160880083937798  0.4990398500362474   T   T   T
  0.4430509387312682  0.5302294799400755  0.5162423921531172   T   T   T
  0.4117077553652919  0.5149248540946303  0.5146721211100598   T   T   T
  0.4072364652893867  0.4855899779063293  0.4961918622552943   T   T   T
  0.4343695984259313  0.4717576988284549  0.4790301309561542   T   T   T
  0.4657993027915595  0.4868890561831591  0.4802164211655651   T   T   T
  0.4999994448246667  0.5334650021605469  0.5000016733125818   T   T   T
  0.4869058205089516  0.4761912419282197  0.4667058440580121   T   T   T
  0.4311024427309107  0.4489938642208742  0.4643739093033901   T   T   T
  0.3828003011146563  0.4736027006354107  0.4951205611691023   T   T   T
  0.3907193385702428  0.5259615272463947  0.5281479509506326   T   T   T
  0.4470168259714029  0.5530244706729164  0.5306441036662477   T   T   T
  0.5529785351319703  0.5530236553058501  0.4693515900005849   T   T   T
  0.6092765556570967  0.5259613864967960  0.4718453981611574   T   T   T
  0.6172002746090612  0.4736065663557909  0.5048761434863493   T   T   T
  0.5689019231292960  0.4489996619052761  0.5356294634573899   T   T   T
  0.5130981457674721  0.4761960460039560  0.5333025075914932   T   T   T
 
  0.00000000E+00  0.00000000E+00  0.00000000E+00
  0.00000000E+00  0.00000000E+00  0.00000000E+00
  0.00000000E+00  0.00000000E+00  0.00000000E+00
  0.00000000E+00  0.00000000E+00  0.00000000E+00
  0.00000000E+00  0.00000000E+00  0.00000000E+00
  0.00000000E+00  0.00000000E+00  0.00000000E+00
  0.00000000E+00  0.00000000E+00  0.00000000E+00
  0.00000000E+00  0.00000000E+00  0.00000000E+00
  0.00000000E+00  0.00000000E+00  0.00000000E+00
  0.00000000E+00  0.00000000E+00  0.00000000E+00
  0.00000000E+00  0.00000000E+00  0.00000000E+00
  0.00000000E+00  0.00000000E+00  0.00000000E+00
  0.00000000E+00  0.00000000E+00  0.00000000E+00
  0.00000000E+00  0.00000000E+00  0.00000000E+00
  0.00000000E+00  0.00000000E+00  0.00000000E+00
  0.00000000E+00  0.00000000E+00  0.00000000E+00
  0.00000000E+00  0.00000000E+00  0.00000000E+00
  0.00000000E+00  0.00000000E+00  0.00000000E+00
  0.00000000E+00  0.00000000E+00  0.00000000E+00
  0.00000000E+00  0.00000000E+00  0.00000000E+00
  0.00000000E+00  0.00000000E+00  0.00000000E+00
  0.00000000E+00  0.00000000E+00  0.00000000E+00
  0.00000000E+00  0.00000000E+00  0.00000000E+00
