!PBE0 def2-SV(p) Opt Freq d3 TightSCF SlowConv RIJCOSX defgrid2
 
%pal
nprocs 4
end
 
%scf
MaxIter 1500
end
 
%maxcore 3000
 

 
* xyz 0 2
S    -0.0001153    1.3639089   -0.0002662 
C    -1.3728886    0.2512950   -0.0015906 
C    -2.6317428    0.8127715   -0.0042182 
C    -3.7873767    0.0174033   -0.0064563 
C    -3.6019158   -1.3814403   -0.0109085 
C    -2.3498760   -1.9329364   -0.0112306 
H    -2.2215636   -3.0046465   -0.0102904 
C    -1.1722348   -1.1507503   -0.0050396 
N    -0.0000315   -1.8005855   -0.0011173 
C     1.1721384   -1.1506939    0.0030967 
C     2.3498193   -1.9328278    0.0088941 
C     3.6018279   -1.3812652    0.0087589 
C     3.7872080    0.0175915    0.0048724 
C     2.6315413    0.8129058    0.0031502 
C     1.3727155    0.2513647    0.0003395 
H     2.6979737    1.8889257    0.0166293 
N     5.0342324    0.5730065    0.0001025 
C     5.2094799    1.9941088   -0.1771333 
H     4.6137281    2.3518646   -1.0194680 
H     4.9161225    2.5507337    0.7195903 
H     6.2549633    2.2038605   -0.3886081 
C     6.2090230   -0.2459052    0.1807169 
H     7.0654380    0.3940432    0.3776299 
H     6.0834954   -0.9168398    1.0330479 
H     6.4206772   -0.8462251   -0.7105775 
H     4.4535848   -2.0409662   -0.0021889 
H     2.2215585   -3.0045443    0.0074766 
H    -4.4536194   -2.0412132   -0.0002953 
N    -5.0344048    0.5728142   -0.0017960 
C    -6.2092466   -0.2462298   -0.1814036 
H    -6.4203041   -0.8463290    0.7101866 
H    -6.0842000   -0.9173768   -1.0336316 
H    -7.0658359    0.3935902   -0.3779702 
C    -5.2095873    1.9938501    0.1760744 
H    -4.6148271    2.3510759    1.0193543 
H    -4.9149369    2.5508491   -0.7199783 
H    -6.2552960    2.2037450    0.3862450 
H    -2.6982206    1.8887941   -0.0170891
*
