C Cl O H                                
   1.00000000000000     
    40.0000000000000000    0.0000000000000000    0.0000000000000000
     0.0000000000000000   40.0000000000000000    0.0000000000000000
     0.0000000000000000    0.0000000000000000   40.0000000000000000
   C    Cl   O    H 
     7     1     1     5
Selective dynamics
Direct
  0.4966937777815210  0.4686483246486341  0.4999814873558480   T   T   T
  0.4628897786149679  0.4763172379946175  0.4999825907911679   T   T   T
  0.4516712628123792  0.5097533553098178  0.4999950215903481   T   T   T
  0.4757988412787068  0.5355183403428001  0.5000154416879268   T   T   T
  0.5097671850443876  0.5285068333599749  0.5000185357505766   T   T   T
  0.5216931305786277  0.4946680369424871  0.5000015229750616   T   T   T
  0.5556681575106620  0.4845456191975706  0.5000049919801577   T   T   T
  0.5870402514914976  0.5210542592943453  0.5000140789450332   T   T   T
  0.5686500460666113  0.4563280477015505  0.4999965715200680   T   T   T
  0.5277839674333210  0.5489431909308754  0.5000314155032650   T   T   T
  0.4676890342835183  0.5616204730269537  0.5000256866021195   T   T   T
  0.4250325581486145  0.5155542075899459  0.4999927566569015   T   T   T
  0.4447174352478093  0.4559041692699853  0.4999674943317861   T   T   T
  0.5049035737073716  0.4426389043904396  0.4999724043097331   T   T   T
 
  0.00000000E+00  0.00000000E+00  0.00000000E+00
  0.00000000E+00  0.00000000E+00  0.00000000E+00
  0.00000000E+00  0.00000000E+00  0.00000000E+00
  0.00000000E+00  0.00000000E+00  0.00000000E+00
  0.00000000E+00  0.00000000E+00  0.00000000E+00
  0.00000000E+00  0.00000000E+00  0.00000000E+00
  0.00000000E+00  0.00000000E+00  0.00000000E+00
  0.00000000E+00  0.00000000E+00  0.00000000E+00
  0.00000000E+00  0.00000000E+00  0.00000000E+00
  0.00000000E+00  0.00000000E+00  0.00000000E+00
  0.00000000E+00  0.00000000E+00  0.00000000E+00
  0.00000000E+00  0.00000000E+00  0.00000000E+00
  0.00000000E+00  0.00000000E+00  0.00000000E+00
  0.00000000E+00  0.00000000E+00  0.00000000E+00
