!PBE0 aug-cc-pVTZ d3 TightSCF SlowConv RIJCOSX defgrid2
 
%pal
nprocs 4
end
 
%scf
MaxIter 1500
end
 
%maxcore 3000
 
!CPCM
%cpcm smd true
SMDsolvent "MeCN"
surfacetype gepol_ses
rsolv 2.19
end 
 
* xyz 1 2
C          -0.71556742602470      1.41147124580485      0.02484351393648
C          -1.89485758612148      0.71255037175673      0.02185452188149
C          -1.89490487228878     -0.71243606709823     -0.02184786737407
C          -0.71566014748267     -1.41143906203058     -0.02485534134414
C           0.52378178615536     -0.72580780509331      0.02738184725448
N           1.67880733273848     -1.40323460000137      0.12447426704281
H           2.54767175517770     -0.96635780966427      0.41412881989197
H           1.66526481618075     -2.41979612436391      0.15230682810719
C           0.52382964238816      0.72575250329787     -0.02740743022416
N           1.67888414838919      1.40311105146924     -0.12454542200936
H           2.54775915845719      0.96616221930099     -0.41405341714921
H           1.66540525229882      2.41967119375531     -0.15237138517056
H          -0.71326686493866     -2.50469578941709     -0.02461886159088
H          -2.84575934012086     -1.25136953209334     -0.03502634075607
H          -2.84567429105713      1.25154580034325      0.03504989002360
H          -0.71309356375136      2.50472700403386      0.02461197748042
*
