C N O H                                 
   1.00000000000000     
    25.0000000000000000    0.0000000000000000    0.0000000000000000
     0.0000000000000000   25.0000000000000000    0.0000000000000000
     0.0000000000000000    0.0000000000000000   25.0000000000000000
   C    N    O    H 
     9     2     2    15
Selective dynamics
Direct
  0.5021591556419196  0.4804447844483306  0.4616359667795678   T   T   T
  0.5043267133680587  0.4426096990055797  0.4998190867458092   T   T   T
  0.5017521435960646  0.4642077484892226  0.5556356574184775   T   T   T
  0.4975647512124510  0.5362646132919053  0.4855286625250699   T   T   T
  0.5042819684423065  0.4656402446468633  0.4036763201215621   T   T   T
  0.4445612224527622  0.5647919306684557  0.4726500718577782   T   T   T
  0.5460836402190097  0.5724355177965279  0.4743764079276360   T   T   T
  0.5529141500930024  0.4524982861142988  0.5878601037416047   T   T   T
  0.4518173436596911  0.4451072726586816  0.5862223685293273   T   T   T
  0.4976568438263627  0.5224340743886486  0.5439332061809168   T   T   T
  0.5015112674089437  0.5055018350078626  0.3672031518316672   T   T   T
  0.4944786482908228  0.5580714676043641  0.5806277794772825   T   T   T
  0.5084895612392444  0.4178023432480487  0.3896968301200161   T   T   T
  0.5076923787008667  0.3999203966442479  0.4918215056397059   T   T   T
  0.4437074729651940  0.5796434870595562  0.4313854145613689   T   T   T
  0.4104598237513741  0.5377367713124883  0.4785413812176671   T   T   T
  0.4402252090101584  0.5993350886195401  0.4994521034784185   T   T   T
  0.5441363424861478  0.6073523171188953  0.5009687456119849   T   T   T
  0.5836320836555444  0.5508822192767653  0.4817731861950492   T   T   T
  0.5462442368846467  0.5870421118146112  0.4330095923407384   T   T   T
  0.5555812844953678  0.4094893171996432  0.5964227036482228   T   T   T
  0.5886826819849986  0.4647210676990525  0.5655023571804136   T   T   T
  0.5516585002974139  0.4743919727021861  0.6259397746253370   T   T   T
  0.4154016163409935  0.4519964009616899  0.5626724547052007   T   T   T
  0.4552203475410437  0.4021540514018866  0.5948135359130831   T   T   T
  0.4486615246763890  0.4668815589470867  0.6242575638595156   T   T   T
  0.4981020976269193  0.5446655982595487  0.3768428392638796   T   T   T
  0.5029959901322840  0.4959758236140317  0.3277312285026994   T   T   T
 
  0.00000000E+00  0.00000000E+00  0.00000000E+00
  0.00000000E+00  0.00000000E+00  0.00000000E+00
  0.00000000E+00  0.00000000E+00  0.00000000E+00
  0.00000000E+00  0.00000000E+00  0.00000000E+00
  0.00000000E+00  0.00000000E+00  0.00000000E+00
  0.00000000E+00  0.00000000E+00  0.00000000E+00
  0.00000000E+00  0.00000000E+00  0.00000000E+00
  0.00000000E+00  0.00000000E+00  0.00000000E+00
  0.00000000E+00  0.00000000E+00  0.00000000E+00
  0.00000000E+00  0.00000000E+00  0.00000000E+00
  0.00000000E+00  0.00000000E+00  0.00000000E+00
  0.00000000E+00  0.00000000E+00  0.00000000E+00
  0.00000000E+00  0.00000000E+00  0.00000000E+00
  0.00000000E+00  0.00000000E+00  0.00000000E+00
  0.00000000E+00  0.00000000E+00  0.00000000E+00
  0.00000000E+00  0.00000000E+00  0.00000000E+00
  0.00000000E+00  0.00000000E+00  0.00000000E+00
  0.00000000E+00  0.00000000E+00  0.00000000E+00
  0.00000000E+00  0.00000000E+00  0.00000000E+00
  0.00000000E+00  0.00000000E+00  0.00000000E+00
  0.00000000E+00  0.00000000E+00  0.00000000E+00
  0.00000000E+00  0.00000000E+00  0.00000000E+00
  0.00000000E+00  0.00000000E+00  0.00000000E+00
  0.00000000E+00  0.00000000E+00  0.00000000E+00
  0.00000000E+00  0.00000000E+00  0.00000000E+00
  0.00000000E+00  0.00000000E+00  0.00000000E+00
  0.00000000E+00  0.00000000E+00  0.00000000E+00
  0.00000000E+00  0.00000000E+00  0.00000000E+00
