C N H                                   
   1.00000000000000     
    40.0000000000000000    0.0000000000000000    0.0000000000000000
     0.0000000000000000   40.0000000000000000    0.0000000000000000
     0.0000000000000000    0.0000000000000000   40.0000000000000000
   C    N    H 
    10     1    17
Selective dynamics
Direct
  0.5273921011615129  0.4690471985921720  0.5015029068792740   T   T   T
  0.5096246608832342  0.5023972687683981  0.5010014491697994   T   T   T
  0.5268795858300075  0.5316127876277583  0.5002377218851547   T   T   T
  0.5644435527740485  0.5336778393457178  0.4995479208079285   T   T   T
  0.5807215790940430  0.5003516430634307  0.4905994538493729   T   T   T
  0.5643898833397855  0.4721958145894098  0.5103970211307560   T   T   T
  0.4546754219303684  0.5309745287060404  0.5020757957612638   T   T   T
  0.4191639247421577  0.5176301043377353  0.5065391143728952   T   T   T
  0.4206220593195149  0.4834370339086501  0.4894792449100737   T   T   T
  0.4552295906200516  0.4704564061084941  0.4991709473400864   T   T   T
  0.4752648142751671  0.5009855839506548  0.5015474140252445   T   T   T
  0.5769589752343580  0.4483648614108165  0.5057160844661257   T   T   T
  0.5668871524942040  0.4774847147471658  0.5371970570530917   T   T   T
  0.6076301091211682  0.5012856364298126  0.4954699675682138   T   T   T
  0.5774890801528965  0.4954776859810968  0.4637952371372243   T   T   T
  0.5723451305436651  0.5529042599175332  0.4816532071781159   T   T   T
  0.5741782076297135  0.5420688425730477  0.5239332708115265   T   T   T
  0.5133124240580734  0.5551064500163438  0.5002695005101633   T   T   T
  0.4653243200029827  0.4532111526313138  0.4805434847350537   T   T   T
  0.4542313123808424  0.4571984601965428  0.5232623356428079   T   T   T
  0.4006652082000627  0.4665936008809874  0.4973358971074412   T   T   T
  0.4191618418320603  0.4864725349991733  0.4623385457153442   T   T   T
  0.4003784446202118  0.5342384553729628  0.4958302712797433   T   T   T
  0.4136805909341080  0.5145705996410513  0.5331633549889404   T   T   T
  0.4622645484452548  0.5475845705597417  0.5225255480474704   T   T   T
  0.4573708996344711  0.5451740306082762  0.4786174639816690   T   T   T
  0.5149394509093893  0.4524214209558794  0.5193287898410054   T   T   T
  0.5247751298366533  0.4570785140798101  0.4769219938042471   T   T   T
 
  0.00000000E+00  0.00000000E+00  0.00000000E+00
  0.00000000E+00  0.00000000E+00  0.00000000E+00
  0.00000000E+00  0.00000000E+00  0.00000000E+00
  0.00000000E+00  0.00000000E+00  0.00000000E+00
  0.00000000E+00  0.00000000E+00  0.00000000E+00
  0.00000000E+00  0.00000000E+00  0.00000000E+00
  0.00000000E+00  0.00000000E+00  0.00000000E+00
  0.00000000E+00  0.00000000E+00  0.00000000E+00
  0.00000000E+00  0.00000000E+00  0.00000000E+00
  0.00000000E+00  0.00000000E+00  0.00000000E+00
  0.00000000E+00  0.00000000E+00  0.00000000E+00
  0.00000000E+00  0.00000000E+00  0.00000000E+00
  0.00000000E+00  0.00000000E+00  0.00000000E+00
  0.00000000E+00  0.00000000E+00  0.00000000E+00
  0.00000000E+00  0.00000000E+00  0.00000000E+00
  0.00000000E+00  0.00000000E+00  0.00000000E+00
  0.00000000E+00  0.00000000E+00  0.00000000E+00
  0.00000000E+00  0.00000000E+00  0.00000000E+00
  0.00000000E+00  0.00000000E+00  0.00000000E+00
  0.00000000E+00  0.00000000E+00  0.00000000E+00
  0.00000000E+00  0.00000000E+00  0.00000000E+00
  0.00000000E+00  0.00000000E+00  0.00000000E+00
  0.00000000E+00  0.00000000E+00  0.00000000E+00
  0.00000000E+00  0.00000000E+00  0.00000000E+00
  0.00000000E+00  0.00000000E+00  0.00000000E+00
  0.00000000E+00  0.00000000E+00  0.00000000E+00
  0.00000000E+00  0.00000000E+00  0.00000000E+00
  0.00000000E+00  0.00000000E+00  0.00000000E+00
