C N H                                   
   1.00000000000000     
    40.0000000000000000    0.0000000000000000    0.0000000000000000
     0.0000000000000000   40.0000000000000000    0.0000000000000000
     0.0000000000000000    0.0000000000000000   40.0000000000000000
   C    N    H 
    12     1    11
Selective dynamics
Direct
  0.4408309079881150  0.4693534200183009  0.5112905969254626   T   T   T
  0.4087489939438029  0.4829229050820842  0.5102176657864916   T   T   T
  0.4034294114894266  0.5152084675405888  0.4977663077485772   T   T   T
  0.4308246830493587  0.5334779723190124  0.4859674154800544   T   T   T
  0.4630361420673239  0.5200534052928134  0.4866054844801297   T   T   T
  0.4685651118313956  0.4877450241470029  0.4995672110829048   T   T   T
  0.5314348881686044  0.4877450241470029  0.5004317889170906   T   T   T
  0.5369638579326761  0.5200534052928134  0.5133935155198728   T   T   T
  0.5691753169506413  0.5334779723190124  0.5140325845199456   T   T   T
  0.5965705885105734  0.5152074675405913  0.5022336922514228   T   T   T
  0.5912510060561971  0.4829219050820797  0.4897833342135129   T   T   T
  0.5591690920118850  0.4693524200183035  0.4887104030745348   T   T   T
  0.5000000000000000  0.4726223375154319  0.5000000000000000   T   T   T
  0.5551894534366539  0.4442739456921458  0.4786926458332132   T   T   T
  0.6122793325427835  0.4681700687697798  0.4805829995139987   T   T   T
  0.6216380611790342  0.5259056139567519  0.5028336738258901   T   T   T
  0.5728388397052413  0.5585059808657959  0.5242705005823183   T   T   T
  0.5162015361425887  0.5344545443860582  0.5235555132236911   T   T   T
  0.5000000000000000  0.4472359663439036  0.5000000000000000   T   T   T
  0.4837984638574113  0.5344545443860582  0.4764434867763043   T   T   T
  0.4271611602947587  0.5585059808657959  0.4757294994176817   T   T   T
  0.3783619388209658  0.5259066139567494  0.4971673261741074   T   T   T
  0.3877206674572165  0.4681710687697844  0.5194180004859987   T   T   T
  0.4448105465633461  0.4442739456921458  0.5213073541667868   T   T   T
 
  0.00000000E+00  0.00000000E+00  0.00000000E+00
  0.00000000E+00  0.00000000E+00  0.00000000E+00
  0.00000000E+00  0.00000000E+00  0.00000000E+00
  0.00000000E+00  0.00000000E+00  0.00000000E+00
  0.00000000E+00  0.00000000E+00  0.00000000E+00
  0.00000000E+00  0.00000000E+00  0.00000000E+00
  0.00000000E+00  0.00000000E+00  0.00000000E+00
  0.00000000E+00  0.00000000E+00  0.00000000E+00
  0.00000000E+00  0.00000000E+00  0.00000000E+00
  0.00000000E+00  0.00000000E+00  0.00000000E+00
  0.00000000E+00  0.00000000E+00  0.00000000E+00
  0.00000000E+00  0.00000000E+00  0.00000000E+00
  0.00000000E+00  0.00000000E+00  0.00000000E+00
  0.00000000E+00  0.00000000E+00  0.00000000E+00
  0.00000000E+00  0.00000000E+00  0.00000000E+00
  0.00000000E+00  0.00000000E+00  0.00000000E+00
  0.00000000E+00  0.00000000E+00  0.00000000E+00
  0.00000000E+00  0.00000000E+00  0.00000000E+00
  0.00000000E+00  0.00000000E+00  0.00000000E+00
  0.00000000E+00  0.00000000E+00  0.00000000E+00
  0.00000000E+00  0.00000000E+00  0.00000000E+00
  0.00000000E+00  0.00000000E+00  0.00000000E+00
  0.00000000E+00  0.00000000E+00  0.00000000E+00
  0.00000000E+00  0.00000000E+00  0.00000000E+00
