C N H                                   
   1.00000000000000     
    40.0000000000000000    0.0000000000000000    0.0000000000000000
     0.0000000000000000   40.0000000000000000    0.0000000000000000
     0.0000000000000000    0.0000000000000000   40.0000000000000000
   C    N    H 
    12     1    11
Selective dynamics
Direct
  0.4410932448407950  0.4695089741072314  0.5112253829836798   T   T   T
  0.4091561870024060  0.4829452385379239  0.5100979610321453   T   T   T
  0.4038691115893848  0.5150635397663135  0.4977563928486666   T   T   T
  0.4310864612787482  0.5333343310767750  0.4860944511259196   T   T   T
  0.4631776793626547  0.5200625860856075  0.4867796595741238   T   T   T
  0.4686000798148114  0.4879267214153432  0.4996551877253386   T   T   T
  0.5313999201851890  0.4879267214153432  0.5003438122746569   T   T   T
  0.5368223206373457  0.5200625860856075  0.5132193404258787   T   T   T
  0.5689135387212516  0.5333343310767750  0.5139055488740802   T   T   T
  0.5961308884106156  0.5150625397663160  0.5022436071513335   T   T   T
  0.5908438129975939  0.4829442385379193  0.4899030389678593   T   T   T
  0.5589067551592050  0.4695079741072339  0.4887756170163177   T   T   T
  0.5000000000000000  0.4729092103520032  0.5000000000000000   T   T   T
  0.5549683053814843  0.4445493302463178  0.4788631332291824   T   T   T
  0.6117236361543742  0.4682561113137806  0.4807794456782242   T   T   T
  0.6210634057067648  0.5256184387556203  0.5028247109282987   T   T   T
  0.5726685811870693  0.5581753328051606  0.5240952614945026   T   T   T
  0.5161150057995776  0.5342473523288103  0.5233246301703461   T   T   T
  0.5000000000000000  0.4477158767702470  0.5000000000000000   T   T   T
  0.4838849942004226  0.5342473523288103  0.4766743698296494   T   T   T
  0.4273314188129307  0.5581753328051606  0.4759047385054974   T   T   T
  0.3789365942932353  0.5256194387556178  0.4971762890716991   T   T   T
  0.3882763638456257  0.4682571113137852  0.5192215543217734   T   T   T
  0.4450316946185155  0.4445493302463178  0.5211368667708176   T   T   T
 
  0.00000000E+00  0.00000000E+00  0.00000000E+00
  0.00000000E+00  0.00000000E+00  0.00000000E+00
  0.00000000E+00  0.00000000E+00  0.00000000E+00
  0.00000000E+00  0.00000000E+00  0.00000000E+00
  0.00000000E+00  0.00000000E+00  0.00000000E+00
  0.00000000E+00  0.00000000E+00  0.00000000E+00
  0.00000000E+00  0.00000000E+00  0.00000000E+00
  0.00000000E+00  0.00000000E+00  0.00000000E+00
  0.00000000E+00  0.00000000E+00  0.00000000E+00
  0.00000000E+00  0.00000000E+00  0.00000000E+00
  0.00000000E+00  0.00000000E+00  0.00000000E+00
  0.00000000E+00  0.00000000E+00  0.00000000E+00
  0.00000000E+00  0.00000000E+00  0.00000000E+00
  0.00000000E+00  0.00000000E+00  0.00000000E+00
  0.00000000E+00  0.00000000E+00  0.00000000E+00
  0.00000000E+00  0.00000000E+00  0.00000000E+00
  0.00000000E+00  0.00000000E+00  0.00000000E+00
  0.00000000E+00  0.00000000E+00  0.00000000E+00
  0.00000000E+00  0.00000000E+00  0.00000000E+00
  0.00000000E+00  0.00000000E+00  0.00000000E+00
  0.00000000E+00  0.00000000E+00  0.00000000E+00
  0.00000000E+00  0.00000000E+00  0.00000000E+00
  0.00000000E+00  0.00000000E+00  0.00000000E+00
  0.00000000E+00  0.00000000E+00  0.00000000E+00
