C H                                     
   1.00000000000000     
    40.0000000000000000    0.0000000000000000    0.0000000000000000
     0.0000000000000000   40.0000000000000000    0.0000000000000000
     0.0000000000000000    0.0000000000000000   40.0000000000000000
   C    H 
     8     6
Selective dynamics
Direct
  0.5343248899028082  0.4698988356845882  0.4999995840079044   T   T   T
  0.5517898880170027  0.5000004464390332  0.5000005097369172   T   T   T
  0.5343235542201356  0.5301007171766039  0.4999996925608239   T   T   T
  0.4996224343152190  0.5302392910613808  0.4999975452026201   T   T   T
  0.4818180317407715  0.4999980105124900  0.4999958141597779   T   T   T
  0.4996237628102979  0.4697573680940405  0.4999971005023394   T   T   T
  0.4463168403832010  0.4999993411915190  0.4999971408533526   T   T   T
  0.4161476552637503  0.5000040067637004  0.5000033048520490   T   T   T
  0.4859935494830736  0.4463545640431422  0.4999979160296235   T   T   T
  0.3895696859447545  0.5000037849030414  0.5000094829495024   T   T   T
  0.4859902765820728  0.5536414721436645  0.4999981883488843   T   T   T
  0.5477950651198599  0.5536146991427277  0.5000010091422817   T   T   T
  0.5788862054408463  0.5000007690599304  0.5000015970588796   T   T   T
  0.5477981607761927  0.4463856937841408  0.5000011145950511   T   T   T
 
  0.00000000E+00  0.00000000E+00  0.00000000E+00
  0.00000000E+00  0.00000000E+00  0.00000000E+00
  0.00000000E+00  0.00000000E+00  0.00000000E+00
  0.00000000E+00  0.00000000E+00  0.00000000E+00
  0.00000000E+00  0.00000000E+00  0.00000000E+00
  0.00000000E+00  0.00000000E+00  0.00000000E+00
  0.00000000E+00  0.00000000E+00  0.00000000E+00
  0.00000000E+00  0.00000000E+00  0.00000000E+00
  0.00000000E+00  0.00000000E+00  0.00000000E+00
  0.00000000E+00  0.00000000E+00  0.00000000E+00
  0.00000000E+00  0.00000000E+00  0.00000000E+00
  0.00000000E+00  0.00000000E+00  0.00000000E+00
  0.00000000E+00  0.00000000E+00  0.00000000E+00
  0.00000000E+00  0.00000000E+00  0.00000000E+00
