C O H                                   
   1.00000000000000     
    40.0000000000000000    0.0000000000000000    0.0000000000000000
     0.0000000000000000   40.0000000000000000    0.0000000000000000
     0.0000000000000000    0.0000000000000000   40.0000000000000000
   C    O    H 
     4     2     8
Selective dynamics
Direct
  0.5189753907848875  0.4707399635722585  0.5060297175969516   T   T   T
  0.4810266092151072  0.4707389635722539  0.4939702824030484   T   T   T
  0.4810246092151123  0.5292600364277414  0.4939702824030484   T   T   T
  0.5189733907848926  0.5292610364277460  0.5060297175969516   T   T   T
  0.4672473432067646  0.4999990000000025  0.5070448284585795   T   T   T
  0.5327526567932354  0.5000009999999975  0.4929551715414206   T   T   T
  0.4683840747098456  0.4494067220659199  0.5051275728999497   T   T   T
  0.4807486539540233  0.4704015794309638  0.4667031619336187   T   T   T
  0.5316159252901544  0.5505932779340802  0.4948724271000502   T   T   T
  0.5192513460459767  0.5295984205690362  0.5332968380663812   T   T   T
  0.4683810747098461  0.5505912779340781  0.5051285728999543   T   T   T
  0.4807456539540237  0.5295984205690362  0.4667041619336233   T   T   T
  0.5316189252901540  0.4494087220659220  0.4948714271000457   T   T   T
  0.5192543460459762  0.4704015794309638  0.5332958380663766   T   T   T
 
  0.00000000E+00  0.00000000E+00  0.00000000E+00
  0.00000000E+00  0.00000000E+00  0.00000000E+00
  0.00000000E+00  0.00000000E+00  0.00000000E+00
  0.00000000E+00  0.00000000E+00  0.00000000E+00
  0.00000000E+00  0.00000000E+00  0.00000000E+00
  0.00000000E+00  0.00000000E+00  0.00000000E+00
  0.00000000E+00  0.00000000E+00  0.00000000E+00
  0.00000000E+00  0.00000000E+00  0.00000000E+00
  0.00000000E+00  0.00000000E+00  0.00000000E+00
  0.00000000E+00  0.00000000E+00  0.00000000E+00
  0.00000000E+00  0.00000000E+00  0.00000000E+00
  0.00000000E+00  0.00000000E+00  0.00000000E+00
  0.00000000E+00  0.00000000E+00  0.00000000E+00
  0.00000000E+00  0.00000000E+00  0.00000000E+00
