C O H                                   
   1.00000000000000     
    40.0000000000000000    0.0000000000000000    0.0000000000000000
     0.0000000000000000   40.0000000000000000    0.0000000000000000
     0.0000000000000000    0.0000000000000000   40.0000000000000000
   C    O    H 
     8     1     8
Selective dynamics
Direct
  0.5103771517724667  0.4765166258564055  0.4999907659043605   T   T   T
  0.5451134125749864  0.4758892220359723  0.4999995088630841   T   T   T
  0.5640118932557384  0.5057401087669339  0.5000054176691359   T   T   T
  0.5465722661071528  0.5364775346674753  0.5000020688189505   T   T   T
  0.5119163091951127  0.5375046791086062  0.4999935617662142   T   T   T
  0.4920906945991599  0.5074847872022620  0.4999919422299527   T   T   T
  0.4562023184928206  0.5093191438969056  0.4999941938371872   T   T   T
  0.4360750922417576  0.4769856607261286  0.5000045152301767   T   T   T
  0.4402011539884887  0.5374031329782045  0.4999955279008574   T   T   T
  0.4093353116586757  0.4831278993227803  0.5000052088001465   T   T   T
  0.4413017168989037  0.4612681025760431  0.5221055628409834   T   T   T
  0.4412972984553697  0.4612584026993871  0.4779085581390725   T   T   T
  0.4987610880557444  0.5614102636250894  0.4999946305028828   T   T   T
  0.5606046154524306  0.5599608219619523  0.5000067093379987   T   T   T
  0.5912869885290035  0.5050879604536215  0.5000126359254073   T   T   T
  0.5579977636467527  0.4517689227395497  0.4999998700349160   T   T   T
  0.4968559250754553  0.4527967313827180  0.4999883221986818   T   T   T
 
  0.00000000E+00  0.00000000E+00  0.00000000E+00
  0.00000000E+00  0.00000000E+00  0.00000000E+00
  0.00000000E+00  0.00000000E+00  0.00000000E+00
  0.00000000E+00  0.00000000E+00  0.00000000E+00
  0.00000000E+00  0.00000000E+00  0.00000000E+00
  0.00000000E+00  0.00000000E+00  0.00000000E+00
  0.00000000E+00  0.00000000E+00  0.00000000E+00
  0.00000000E+00  0.00000000E+00  0.00000000E+00
  0.00000000E+00  0.00000000E+00  0.00000000E+00
  0.00000000E+00  0.00000000E+00  0.00000000E+00
  0.00000000E+00  0.00000000E+00  0.00000000E+00
  0.00000000E+00  0.00000000E+00  0.00000000E+00
  0.00000000E+00  0.00000000E+00  0.00000000E+00
  0.00000000E+00  0.00000000E+00  0.00000000E+00
  0.00000000E+00  0.00000000E+00  0.00000000E+00
  0.00000000E+00  0.00000000E+00  0.00000000E+00
  0.00000000E+00  0.00000000E+00  0.00000000E+00
