C O H                                   
   1.00000000000000     
    40.0000000000000000    0.0000000000000000    0.0000000000000000
     0.0000000000000000   40.0000000000000000    0.0000000000000000
     0.0000000000000000    0.0000000000000000   40.0000000000000000
   C    O    H 
    13     1    10
Selective dynamics
Direct
  0.4380534527047368  0.5312293259112165  0.5025271077761149   T   T   T
  0.4067862273019682  0.5162259967048138  0.4999890528266037   T   T   T
  0.4680581831918097  0.5131823448197759  0.4961145770892117   T   T   T
  0.4642355198894688  0.4794428253433516  0.4855608510095870   T   T   T
  0.4328673950135409  0.4646221951479056  0.4827001622651898   T   T   T
  0.4036477211098374  0.4826357049062261  0.4902425942780940   T   T   T
  0.5001005454307200  0.5311605960720840  0.4982824648331559   T   T   T
  0.5320259597091471  0.5133076427322280  0.5023211575648590   T   T   T
  0.5621563105328103  0.5303876426780617  0.4940909492892624   T   T   T
  0.5933327790721761  0.5155887189073162  0.4983777646601328   T   T   T
  0.5962522018148740  0.4832379303079251  0.5117355162197373   T   T   T
  0.5668989060084088  0.4662823281263406  0.5210069304398887   T   T   T
  0.5356251990150575  0.4808617333066505  0.5164244384733027   T   T   T
  0.5002052552277436  0.5632937791368151  0.4966502155944561   T   T   T
  0.4310278701018335  0.4387427523681543  0.4741275363558159   T   T   T
  0.3791082044599609  0.4709074513887425  0.4881841526765532   T   T   T
  0.4405888728572477  0.5574614957939827  0.5095254375363213   T   T   T
  0.3843604889048841  0.5307762464507428  0.5056812523764612   T   T   T
  0.4862821843087963  0.4650287154580848  0.4785350570839861   T   T   T
  0.5134662281998605  0.4674093896389246  0.5248521198967993   T   T   T
  0.6207196824862388  0.4716971696959031  0.5152073583420004   T   T   T
  0.5685576899606578  0.4414694880883231  0.5323221497978147   T   T   T
  0.5597904267447017  0.5557133750361760  0.4842709136865274   T   T   T
  0.6158546959534982  0.5293371519802363  0.4912702399281378   T   T   T
 
  0.00000000E+00  0.00000000E+00  0.00000000E+00
  0.00000000E+00  0.00000000E+00  0.00000000E+00
  0.00000000E+00  0.00000000E+00  0.00000000E+00
  0.00000000E+00  0.00000000E+00  0.00000000E+00
  0.00000000E+00  0.00000000E+00  0.00000000E+00
  0.00000000E+00  0.00000000E+00  0.00000000E+00
  0.00000000E+00  0.00000000E+00  0.00000000E+00
  0.00000000E+00  0.00000000E+00  0.00000000E+00
  0.00000000E+00  0.00000000E+00  0.00000000E+00
  0.00000000E+00  0.00000000E+00  0.00000000E+00
  0.00000000E+00  0.00000000E+00  0.00000000E+00
  0.00000000E+00  0.00000000E+00  0.00000000E+00
  0.00000000E+00  0.00000000E+00  0.00000000E+00
  0.00000000E+00  0.00000000E+00  0.00000000E+00
  0.00000000E+00  0.00000000E+00  0.00000000E+00
  0.00000000E+00  0.00000000E+00  0.00000000E+00
  0.00000000E+00  0.00000000E+00  0.00000000E+00
  0.00000000E+00  0.00000000E+00  0.00000000E+00
  0.00000000E+00  0.00000000E+00  0.00000000E+00
  0.00000000E+00  0.00000000E+00  0.00000000E+00
  0.00000000E+00  0.00000000E+00  0.00000000E+00
  0.00000000E+00  0.00000000E+00  0.00000000E+00
  0.00000000E+00  0.00000000E+00  0.00000000E+00
  0.00000000E+00  0.00000000E+00  0.00000000E+00
