C N H                                   
   1.00000000000000     
    40.0000000000000000    0.0000000000000000    0.0000000000000000
     0.0000000000000000   40.0000000000000000    0.0000000000000000
     0.0000000000000000    0.0000000000000000   40.0000000000000000
   C    N    H 
     6     2     8
Selective dynamics
Direct
  0.4815988345430142  0.5347733036758910  0.5002968026948054   T   T   T
  0.4511731190929993  0.5174765754962038  0.5002734285021120   T   T   T
  0.4511711781987202  0.4825237452045954  0.4997291661507361   T   T   T
  0.4815986239483436  0.4652273300029677  0.4997054710539004   T   T   T
  0.5122863494902674  0.4822089763086126  0.5001073301089889   T   T   T
  0.5122881638931389  0.5177912955302375  0.4998949141735167   T   T   T
  0.5428660837770565  0.4651486973519710  0.4991052605426205   T   T   T
  0.5428672088719466  0.5348512791517805  0.5008916989487204   T   T   T
  0.5614406273010815  0.4758481466644895  0.5128432827429563   T   T   T
  0.5411188085032563  0.4403098182067353  0.5042587622659411   T   T   T
  0.5614420185480071  0.5241491989473204  0.4871553790120302   T   T   T
  0.5411216373346832  0.5596900181790758  0.4957397426297447   T   T   T
  0.4818273539245297  0.4379081357925472  0.4997266904612161   T   T   T
  0.4276850856686920  0.4686406146217479  0.4995297698533250   T   T   T
  0.4276865592416854  0.5313607621185170  0.5004687092596001   T   T   T
  0.4818283476625922  0.5620921027473216  0.5002725915998028   T   T   T
 
  0.00000000E+00  0.00000000E+00  0.00000000E+00
  0.00000000E+00  0.00000000E+00  0.00000000E+00
  0.00000000E+00  0.00000000E+00  0.00000000E+00
  0.00000000E+00  0.00000000E+00  0.00000000E+00
  0.00000000E+00  0.00000000E+00  0.00000000E+00
  0.00000000E+00  0.00000000E+00  0.00000000E+00
  0.00000000E+00  0.00000000E+00  0.00000000E+00
  0.00000000E+00  0.00000000E+00  0.00000000E+00
  0.00000000E+00  0.00000000E+00  0.00000000E+00
  0.00000000E+00  0.00000000E+00  0.00000000E+00
  0.00000000E+00  0.00000000E+00  0.00000000E+00
  0.00000000E+00  0.00000000E+00  0.00000000E+00
  0.00000000E+00  0.00000000E+00  0.00000000E+00
  0.00000000E+00  0.00000000E+00  0.00000000E+00
  0.00000000E+00  0.00000000E+00  0.00000000E+00
  0.00000000E+00  0.00000000E+00  0.00000000E+00
