C O H                                   
   1.00000000000000     
    40.0000000000000000    0.0000000000000000    0.0000000000000000
     0.0000000000000000   40.0000000000000000    0.0000000000000000
     0.0000000000000000    0.0000000000000000   40.0000000000000000
   C    O    H 
     9     1     8
Selective dynamics
Direct
  0.4880284747191406  0.4777579688004112  0.4999906862353762   T   T   T
  0.4733787645168165  0.5096732598063846  0.4999970959936575   T   T   T
  0.4938595961673074  0.5382822454520555  0.4999952192848005   T   T   T
  0.5283888106272820  0.5350809228332964  0.4999926433765939   T   T   T
  0.5435883353899017  0.5031489931342786  0.4999932698253598   T   T   T
  0.5227808374925174  0.4747433013889549  0.4999884916418072   T   T   T
  0.5790465409534827  0.4998806685496192  0.5000001016969686   T   T   T
  0.6093640734542417  0.4972090111508055  0.5000164107393397   T   T   T
  0.4176703234770083  0.4871979981936126  0.5000086229007300   T   T   T
  0.4397761819007459  0.5155695470469696  0.5000016368161765   T   T   T
  0.5340426538204595  0.4499197549646570  0.4999817303092301   T   T   T
  0.6360649526098955  0.4947900450651592  0.5000299395751366   T   T   T
  0.5440351512211541  0.5574010404005696  0.4999880820479106   T   T   T
  0.4821258700925959  0.5628893317225315  0.4999959426188832   T   T   T
  0.3923547289082711  0.4975882604312436  0.5000164199273948   T   T   T
  0.4213649844374200  0.4718125798237205  0.4774957478211694   T   T   T
  0.4213793463316398  0.4718122434045754  0.5225188776406301   T   T   T
  0.4727493738801296  0.4552428278311482  0.4999890815488423   T   T   T
 
  0.00000000E+00  0.00000000E+00  0.00000000E+00
  0.00000000E+00  0.00000000E+00  0.00000000E+00
  0.00000000E+00  0.00000000E+00  0.00000000E+00
  0.00000000E+00  0.00000000E+00  0.00000000E+00
  0.00000000E+00  0.00000000E+00  0.00000000E+00
  0.00000000E+00  0.00000000E+00  0.00000000E+00
  0.00000000E+00  0.00000000E+00  0.00000000E+00
  0.00000000E+00  0.00000000E+00  0.00000000E+00
  0.00000000E+00  0.00000000E+00  0.00000000E+00
  0.00000000E+00  0.00000000E+00  0.00000000E+00
  0.00000000E+00  0.00000000E+00  0.00000000E+00
  0.00000000E+00  0.00000000E+00  0.00000000E+00
  0.00000000E+00  0.00000000E+00  0.00000000E+00
  0.00000000E+00  0.00000000E+00  0.00000000E+00
  0.00000000E+00  0.00000000E+00  0.00000000E+00
  0.00000000E+00  0.00000000E+00  0.00000000E+00
  0.00000000E+00  0.00000000E+00  0.00000000E+00
  0.00000000E+00  0.00000000E+00  0.00000000E+00
