C H                                     
   1.00000000000000     
    40.0000000000000000    0.0000000000000000    0.0000000000000000
     0.0000000000000000   40.0000000000000000    0.0000000000000000
     0.0000000000000000    0.0000000000000000   40.0000000000000000
   C    H 
     8    10
Selective dynamics
Direct
  0.4697243211248249  0.4680553849392891  0.5003432326397016   T   T   T
  0.4999776228766754  0.4506741597076414  0.5008996796758066   T   T   T
  0.5303176724511579  0.4680341759965881  0.5008028248255202   T   T   T
  0.5307270413212924  0.5030634001348553  0.5000553277733375   T   T   T
  0.5631972942071066  0.5221613604316659  0.4990692794701653   T   T   T
  0.5000446973487755  0.5200644334366745  0.4996008513364710   T   T   T
  0.4693842233737236  0.5031494560620311  0.4997924255279408   T   T   T
  0.4368314887488559  0.5221285005326797  0.5001414777173712   T   T   T
  0.5621283713459114  0.5446585121092092  0.5148129897346342   T   T   T
  0.5842409066839773  0.5067041332153702  0.5075528664719926   T   T   T
  0.5689218059338196  0.5305516662234268  0.4734784697037320   T   T   T
  0.4399118365711421  0.5476524630770867  0.4905039010639871   T   T   T
  0.4269130662539457  0.5241767174871101  0.5257463377830541   T   T   T
  0.4176446171902023  0.5094743730236336  0.4850889136791401   T   T   T
  0.5000565287612395  0.5474100750495169  0.4991135487156242   T   T   T
  0.5539079828098857  0.4542982031359912  0.5012474367098485   T   T   T
  0.4999650568707167  0.4233920070113250  0.5013782385619573   T   T   T
  0.4461054661267686  0.4543499784259012  0.5003731986096990   T   T   T
 
  0.00000000E+00  0.00000000E+00  0.00000000E+00
  0.00000000E+00  0.00000000E+00  0.00000000E+00
  0.00000000E+00  0.00000000E+00  0.00000000E+00
  0.00000000E+00  0.00000000E+00  0.00000000E+00
  0.00000000E+00  0.00000000E+00  0.00000000E+00
  0.00000000E+00  0.00000000E+00  0.00000000E+00
  0.00000000E+00  0.00000000E+00  0.00000000E+00
  0.00000000E+00  0.00000000E+00  0.00000000E+00
  0.00000000E+00  0.00000000E+00  0.00000000E+00
  0.00000000E+00  0.00000000E+00  0.00000000E+00
  0.00000000E+00  0.00000000E+00  0.00000000E+00
  0.00000000E+00  0.00000000E+00  0.00000000E+00
  0.00000000E+00  0.00000000E+00  0.00000000E+00
  0.00000000E+00  0.00000000E+00  0.00000000E+00
  0.00000000E+00  0.00000000E+00  0.00000000E+00
  0.00000000E+00  0.00000000E+00  0.00000000E+00
  0.00000000E+00  0.00000000E+00  0.00000000E+00
  0.00000000E+00  0.00000000E+00  0.00000000E+00
