C N O H                                 
   1.00000000000000     
    40.0000000000000000    0.0000000000000000    0.0000000000000000
     0.0000000000000000   40.0000000000000000    0.0000000000000000
     0.0000000000000000    0.0000000000000000   40.0000000000000000
   C    N    O    H 
     7     1     1     9
Selective dynamics
Direct
  0.5453529129408565  0.5241255486055394  0.4998592669395236   T   T   T
  0.5165415467482362  0.5430724221946548  0.5006963836567024   T   T   T
  0.4851855158377205  0.5274665409513375  0.5009605160392354   T   T   T
  0.4827412160201092  0.4916412091288365  0.5006273965897350   T   T   T
  0.5114841169687594  0.4722005630977435  0.4998472896377990   T   T   T
  0.5429052496955649  0.4880399651722698  0.4992615530141862   T   T   T
  0.4224396881385672  0.4939650089770922  0.5008891614602859   T   T   T
  0.5712956800242637  0.4702121470153671  0.4979830347817966   T   T   T
  0.4534606030383088  0.4753572055213056  0.5010237051446893   T   T   T
  0.5709729591799473  0.4448133644166461  0.4972774243935874   T   T   T
  0.5940262759001840  0.4815136575553041  0.4973897599788373   T   T   T
  0.5094199399110124  0.4450439643414796  0.4995345312078641   T   T   T
  0.4028265354802585  0.4749581544936703  0.5008482533813421   T   T   T
  0.4204949437939902  0.5093428974490095  0.4782251336933854   T   T   T
  0.4202750859341933  0.5094540984102665  0.5234598178642571   T   T   T
  0.4626488428971527  0.5426851139706699  0.5014302676215792   T   T   T
  0.5179910075057350  0.5702501746021511  0.5010916121542195   T   T   T
  0.5699388799851448  0.5358569640966451  0.4995938924410055   T   T   T
 
  0.00000000E+00  0.00000000E+00  0.00000000E+00
  0.00000000E+00  0.00000000E+00  0.00000000E+00
  0.00000000E+00  0.00000000E+00  0.00000000E+00
  0.00000000E+00  0.00000000E+00  0.00000000E+00
  0.00000000E+00  0.00000000E+00  0.00000000E+00
  0.00000000E+00  0.00000000E+00  0.00000000E+00
  0.00000000E+00  0.00000000E+00  0.00000000E+00
  0.00000000E+00  0.00000000E+00  0.00000000E+00
  0.00000000E+00  0.00000000E+00  0.00000000E+00
  0.00000000E+00  0.00000000E+00  0.00000000E+00
  0.00000000E+00  0.00000000E+00  0.00000000E+00
  0.00000000E+00  0.00000000E+00  0.00000000E+00
  0.00000000E+00  0.00000000E+00  0.00000000E+00
  0.00000000E+00  0.00000000E+00  0.00000000E+00
  0.00000000E+00  0.00000000E+00  0.00000000E+00
  0.00000000E+00  0.00000000E+00  0.00000000E+00
  0.00000000E+00  0.00000000E+00  0.00000000E+00
  0.00000000E+00  0.00000000E+00  0.00000000E+00
