!B3LYP aug-cc-pVTZ d3 TightSCF SlowConv RIJCOSX defgrid2
 
%pal
nprocs 4
end
 
%scf
MaxIter 1500
end
 
%maxcore 3000
 
!CPCM
%cpcm smd true
SMDsolvent "MeCN"
surfacetype gepol_ses
rsolv 2.19
end 
 
* xyz 0 1
C           0.40845561541467      1.09654851965361      0.00002153601786
C           1.22157048240356     -0.02055925058461     -0.00001124146046
C           0.31627509804411     -1.10552037144195      0.00002465926407
N          -0.94362721428629     -0.69407804717258     -0.00003818172667
N          -0.86222699991342      0.63149016796153     -0.00002192547512
H          -1.71469887339655      1.17729476555237     -0.00003850624553
H           0.53586137989645     -2.17396458772866      0.00003582780905
H           2.30976241169899     -0.04700402205514     -0.00001651155181
H           0.63234930013847      2.16236532581542      0.00003934336862
*
