C N H                                   
   1.00000000000000     
    40.0000000000000000    0.0000000000000000    0.0000000000000000
     0.0000000000000000   40.0000000000000000    0.0000000000000000
     0.0000000000000000    0.0000000000000000   40.0000000000000000
   C    N    H 
     9     2    16
Selective dynamics
Direct
  0.5680353975866591  0.4778644731447314  0.5130317550038878   T   T   T
  0.5109225497362851  0.4807369339506033  0.4935211383068463   T   T   T
  0.4810229482765951  0.5345377466382967  0.4872776990703205   T   T   T
  0.4528068100950297  0.5276786685478961  0.5124157204362579   T   T   T
  0.4319138561238712  0.4964445417429830  0.5050983953036434   T   T   T
  0.4511456758291568  0.4634221848600764  0.5064241956169363   T   T   T
  0.4808668876483378  0.4616052627276189  0.4818267188526915   T   T   T
  0.5422267993085036  0.5327711510273598  0.5015619805471327   T   T   T
  0.5727698866516733  0.5112175539450823  0.4951800015119908   T   T   T
  0.5353489780337501  0.4639722340334170  0.5083380047095115   T   T   T
  0.5115617229253715  0.5146091603069159  0.4926581105780345   T   T   T
  0.4732252021524648  0.4707872413213492  0.4570188938207597   T   T   T
  0.4889755970500164  0.4355883091220488  0.4788517556411076   T   T   T
  0.4602882837261417  0.4584536901514160  0.5319148679835698   T   T   T
  0.4340947459156095  0.4428308042612878  0.5001382362363163   T   T   T
  0.4110915759021220  0.4954131882110218  0.5230100005051103   T   T   T
  0.4204249869205703  0.4991652394218420  0.4801823702308749   T   T   T
  0.4634258147895937  0.5267862953628393  0.5378107899274328   T   T   T
  0.4364636812893025  0.5497708179335205  0.5116727938145544   T   T   T
  0.4723057151506531  0.5298656450935644  0.4615305053532191   T   T   T
  0.4888267940792080  0.5607563911910405  0.4886649990880277   T   T   T
  0.5952650825749937  0.5240808794271896  0.5041334126869605   T   T   T
  0.5756963709578737  0.5071187642537417  0.4681627721490235   T   T   T
  0.5426505532327126  0.5556830431591081  0.4864035028992593   T   T   T
  0.5402944736528783  0.5406234832764700  0.5279759913917631   T   T   T
  0.5720234164619736  0.4793634364714194  0.5403936289360173   T   T   T
  0.5863251939286765  0.4588538604171581  0.5048017593987427   T   T   T
 
  0.00000000E+00  0.00000000E+00  0.00000000E+00
  0.00000000E+00  0.00000000E+00  0.00000000E+00
  0.00000000E+00  0.00000000E+00  0.00000000E+00
  0.00000000E+00  0.00000000E+00  0.00000000E+00
  0.00000000E+00  0.00000000E+00  0.00000000E+00
  0.00000000E+00  0.00000000E+00  0.00000000E+00
  0.00000000E+00  0.00000000E+00  0.00000000E+00
  0.00000000E+00  0.00000000E+00  0.00000000E+00
  0.00000000E+00  0.00000000E+00  0.00000000E+00
  0.00000000E+00  0.00000000E+00  0.00000000E+00
  0.00000000E+00  0.00000000E+00  0.00000000E+00
  0.00000000E+00  0.00000000E+00  0.00000000E+00
  0.00000000E+00  0.00000000E+00  0.00000000E+00
  0.00000000E+00  0.00000000E+00  0.00000000E+00
  0.00000000E+00  0.00000000E+00  0.00000000E+00
  0.00000000E+00  0.00000000E+00  0.00000000E+00
  0.00000000E+00  0.00000000E+00  0.00000000E+00
  0.00000000E+00  0.00000000E+00  0.00000000E+00
  0.00000000E+00  0.00000000E+00  0.00000000E+00
  0.00000000E+00  0.00000000E+00  0.00000000E+00
  0.00000000E+00  0.00000000E+00  0.00000000E+00
  0.00000000E+00  0.00000000E+00  0.00000000E+00
  0.00000000E+00  0.00000000E+00  0.00000000E+00
  0.00000000E+00  0.00000000E+00  0.00000000E+00
  0.00000000E+00  0.00000000E+00  0.00000000E+00
  0.00000000E+00  0.00000000E+00  0.00000000E+00
  0.00000000E+00  0.00000000E+00  0.00000000E+00
