C N H                                   
   1.00000000000000     
    40.0000000000000000    0.0000000000000000    0.0000000000000000
     0.0000000000000000   40.0000000000000000    0.0000000000000000
     0.0000000000000000    0.0000000000000000   40.0000000000000000
   C    N    H 
     6     1     7
Selective dynamics
Direct
  0.4948522066498597  0.4697334610019226  0.5008257488579773   T   T   T
  0.5297078782270006  0.4698887244326926  0.5008591133844149   T   T   T
  0.5475005705119003  0.4999990000000025  0.5008773533590087   T   T   T
  0.5297078782270006  0.5301102755673028  0.5008591133844149   T   T   T
  0.4948532066498572  0.5302665389980774  0.5008257488579773   T   T   T
  0.4768266175617129  0.5000000000000000  0.5007879638486941   T   T   T
  0.4420812810701875  0.5000009999999975  0.5022207934302898   T   T   T
  0.4304672666602229  0.5211129259104723  0.4943443180221436   T   T   T
  0.4304662666602255  0.4788890740895297  0.4943443180221436   T   T   T
  0.4812818911558381  0.5539580269145361  0.5008364494267781   T   T   T
  0.5431133230108074  0.5538788115260687  0.5007862445439244   T   T   T
  0.5747483994487084  0.4999990000000025  0.5008111408915141   T   T   T
  0.5431123230108099  0.4461201884739197  0.5007862445439244   T   T   T
  0.4812798911558502  0.4460419730854639  0.5008364494267781   T   T   T
 
  0.00000000E+00  0.00000000E+00  0.00000000E+00
  0.00000000E+00  0.00000000E+00  0.00000000E+00
  0.00000000E+00  0.00000000E+00  0.00000000E+00
  0.00000000E+00  0.00000000E+00  0.00000000E+00
  0.00000000E+00  0.00000000E+00  0.00000000E+00
  0.00000000E+00  0.00000000E+00  0.00000000E+00
  0.00000000E+00  0.00000000E+00  0.00000000E+00
  0.00000000E+00  0.00000000E+00  0.00000000E+00
  0.00000000E+00  0.00000000E+00  0.00000000E+00
  0.00000000E+00  0.00000000E+00  0.00000000E+00
  0.00000000E+00  0.00000000E+00  0.00000000E+00
  0.00000000E+00  0.00000000E+00  0.00000000E+00
  0.00000000E+00  0.00000000E+00  0.00000000E+00
  0.00000000E+00  0.00000000E+00  0.00000000E+00
