C N H                                   
   1.00000000000000     
    40.0000000000000000    0.0000000000000000    0.0000000000000000
     0.0000000000000000   40.0000000000000000    0.0000000000000000
     0.0000000000000000    0.0000000000000000   40.0000000000000000
   C    N    H 
     9     2    16
Selective dynamics
Direct
  0.5680233653045477  0.4769620147706704  0.5110663405274707   T   T   T
  0.5121848508750304  0.4792004008175823  0.4913805437075354   T   T   T
  0.4811367352945979  0.5329057102506312  0.4848372538094665   T   T   T
  0.4536210481387499  0.5288416307001071  0.5113474552042092   T   T   T
  0.4325550761284234  0.4972094013797843  0.5068216923203295   T   T   T
  0.4521870702051274  0.4643385899614145  0.5078163420726440   T   T   T
  0.4802194549379166  0.4614860055087462  0.4814844076913118   T   T   T
  0.5405483162988531  0.5321537356231758  0.5035960162553437   T   T   T
  0.5723955195585830  0.5122977776997999  0.4972043095925187   T   T   T
  0.5372876632559880  0.4605793384148100  0.5001823284863391   T   T   T
  0.5116103866988908  0.5137350490790595  0.4909964369402786   T   T   T
  0.4709791466628062  0.4706256136397613  0.4571560446828897   T   T   T
  0.4871375014977275  0.4351678144265847  0.4781896641784655   T   T   T
  0.4631604264730811  0.4606004809509514  0.5328300360486082   T   T   T
  0.4345291829013149  0.4435766098474687  0.5039708207727429   T   T   T
  0.4128360741887533  0.4965548288405373  0.5260300654564105   T   T   T
  0.4195208731925675  0.4989106662765224  0.4825326768831317   T   T   T
  0.4652558808604041  0.5292690273617353  0.5363380433046743   T   T   T
  0.4370389083112798  0.5508006888706305  0.5100294009587785   T   T   T
  0.4709128498175801  0.5267623881434673  0.4599579005958176   T   T   T
  0.4887921214448809  0.5592574036943248  0.4835942082636961   T   T   T
  0.5939041845749031  0.5249753843590881  0.5087237012653176   T   T   T
  0.5770392260078197  0.5110949422791435  0.4700928974614484   T   T   T
  0.5414830551914065  0.5564881262129049  0.4907881201255790   T   T   T
  0.5378008861215164  0.5373243372944003  0.5306473810388965   T   T   T
  0.5684982174892994  0.4777216900035697  0.5386992624751770   T   T   T
  0.5893409785679822  0.4611613435931261  0.5036866498809118   T   T   T
 
  0.00000000E+00  0.00000000E+00  0.00000000E+00
  0.00000000E+00  0.00000000E+00  0.00000000E+00
  0.00000000E+00  0.00000000E+00  0.00000000E+00
  0.00000000E+00  0.00000000E+00  0.00000000E+00
  0.00000000E+00  0.00000000E+00  0.00000000E+00
  0.00000000E+00  0.00000000E+00  0.00000000E+00
  0.00000000E+00  0.00000000E+00  0.00000000E+00
  0.00000000E+00  0.00000000E+00  0.00000000E+00
  0.00000000E+00  0.00000000E+00  0.00000000E+00
  0.00000000E+00  0.00000000E+00  0.00000000E+00
  0.00000000E+00  0.00000000E+00  0.00000000E+00
  0.00000000E+00  0.00000000E+00  0.00000000E+00
  0.00000000E+00  0.00000000E+00  0.00000000E+00
  0.00000000E+00  0.00000000E+00  0.00000000E+00
  0.00000000E+00  0.00000000E+00  0.00000000E+00
  0.00000000E+00  0.00000000E+00  0.00000000E+00
  0.00000000E+00  0.00000000E+00  0.00000000E+00
  0.00000000E+00  0.00000000E+00  0.00000000E+00
  0.00000000E+00  0.00000000E+00  0.00000000E+00
  0.00000000E+00  0.00000000E+00  0.00000000E+00
  0.00000000E+00  0.00000000E+00  0.00000000E+00
  0.00000000E+00  0.00000000E+00  0.00000000E+00
  0.00000000E+00  0.00000000E+00  0.00000000E+00
  0.00000000E+00  0.00000000E+00  0.00000000E+00
  0.00000000E+00  0.00000000E+00  0.00000000E+00
  0.00000000E+00  0.00000000E+00  0.00000000E+00
  0.00000000E+00  0.00000000E+00  0.00000000E+00
