C N H                                   
   1.00000000000000     
    40.0000000000000000    0.0000000000000000    0.0000000000000000
     0.0000000000000000   40.0000000000000000    0.0000000000000000
     0.0000000000000000    0.0000000000000000   40.0000000000000000
   C    N    H 
     7     1     9
Selective dynamics
Direct
  0.4777873276801675  0.5308855322009952  0.5001065575038968   T   T   T
  0.5119113458843705  0.5305202251267664  0.4994918807624119   T   T   T
  0.5299664884055234  0.5000196334408772  0.4994708373445421   T   T   T
  0.5670764441416803  0.5000051756171165  0.4990406585194458   T   T   T
  0.5119211972734055  0.4695038529808544  0.4994919490093473   T   T   T
  0.4778024286475857  0.4691285717941123  0.5001024860087265   T   T   T
  0.4599575278983747  0.5000039952291685  0.5007274186608828   T   T   T
  0.4267412094002651  0.4999975474641921  0.5020199223370816   T   T   T
  0.5772601123225868  0.5224976104877386  0.5105521276758297   T   T   T
  0.5760264618808821  0.4994747068397385  0.4731089726460022   T   T   T
  0.5772182203772571  0.4779319970120020  0.5113880800372719   T   T   T
  0.4136034244080141  0.4784391452457439  0.5026800323599133   T   T   T
  0.4135961037291136  0.5215518013049332  0.5026827171433933   T   T   T
  0.4639697525888700  0.4458533182389373  0.5003198371731652   T   T   T
  0.5256165503765506  0.4461460135402911  0.4992426390563633   T   T   T
  0.5255966271590825  0.5538836006009697  0.4992465792619905   T   T   T
  0.4639487778262490  0.5541572728755698  0.5003273044997004   T   T   T
 
  0.00000000E+00  0.00000000E+00  0.00000000E+00
  0.00000000E+00  0.00000000E+00  0.00000000E+00
  0.00000000E+00  0.00000000E+00  0.00000000E+00
  0.00000000E+00  0.00000000E+00  0.00000000E+00
  0.00000000E+00  0.00000000E+00  0.00000000E+00
  0.00000000E+00  0.00000000E+00  0.00000000E+00
  0.00000000E+00  0.00000000E+00  0.00000000E+00
  0.00000000E+00  0.00000000E+00  0.00000000E+00
  0.00000000E+00  0.00000000E+00  0.00000000E+00
  0.00000000E+00  0.00000000E+00  0.00000000E+00
  0.00000000E+00  0.00000000E+00  0.00000000E+00
  0.00000000E+00  0.00000000E+00  0.00000000E+00
  0.00000000E+00  0.00000000E+00  0.00000000E+00
  0.00000000E+00  0.00000000E+00  0.00000000E+00
  0.00000000E+00  0.00000000E+00  0.00000000E+00
  0.00000000E+00  0.00000000E+00  0.00000000E+00
  0.00000000E+00  0.00000000E+00  0.00000000E+00
