C H                                     
   1.00000000000000     
    40.0000000000000000    0.0000000000000000    0.0000000000000000
     0.0000000000000000   40.0000000000000000    0.0000000000000000
     0.0000000000000000    0.0000000000000000   40.0000000000000000
   C    H 
    14    12
Selective dynamics
Direct
  0.5606216939077342  0.4776706466960476  0.5150579305628611   T   T   T
  0.5315484074226617  0.4903488327018550  0.4991271848526608   T   T   T
  0.5335715994121060  0.5211436075645253  0.4815038717710678   T   T   T
  0.5635303840574437  0.5385835908221921  0.4800268943005506   T   T   T
  0.5918851432438856  0.5259802557705768  0.4963753973460641   T   T   T
  0.5902504637677382  0.4956222450267802  0.5140421360859193   T   T   T
  0.5000000000000000  0.4720924645900411  0.5000000000000000   T   T   T
  0.5000000000000000  0.4374056318196864  0.4999990000000025   T   T   T
  0.4684515925773454  0.4903488327018550  0.5008728151473392   T   T   T
  0.4393783060922658  0.4776716466960522  0.4849420694371389   T   T   T
  0.4097495362322618  0.4956232450267777  0.4859578639140807   T   T   T
  0.4081148567561144  0.5259812557705743  0.5036246026539359   T   T   T
  0.4364696159425563  0.5385835908221921  0.5199741056994611   T   T   T
  0.4664284005878940  0.5211436075645253  0.5184971282289297   T   T   T
  0.6122897577280497  0.4862869248795860  0.5270728561200784   T   T   T
  0.6154046482891857  0.5397047943611071  0.4952024228225511   T   T   T
  0.5650542182561722  0.5618396120288907  0.4659270124138430   T   T   T
  0.5117050036321302  0.5303067275543967  0.4680684750590132   T   T   T
  0.4767288192592929  0.4233039794329372  0.4993454397625214   T   T   T
  0.5232701807407096  0.4233029794329326  0.5006525602374765   T   T   T
  0.4882949963678698  0.5303057275543992  0.5319325249409843   T   T   T
  0.4349457817438278  0.5618386120288932  0.5340749875861590   T   T   T
  0.3845953517108143  0.5397057943611117  0.5047985771774464   T   T   T
  0.3877102422719503  0.4862879248795835  0.4729261438799242   T   T   T
  0.4407079446480395  0.4544582349562489  0.4707335376590791   T   T   T
  0.5592920553519605  0.4544572349562515  0.5292644623409188   T   T   T
 
  0.00000000E+00  0.00000000E+00  0.00000000E+00
  0.00000000E+00  0.00000000E+00  0.00000000E+00
  0.00000000E+00  0.00000000E+00  0.00000000E+00
  0.00000000E+00  0.00000000E+00  0.00000000E+00
  0.00000000E+00  0.00000000E+00  0.00000000E+00
  0.00000000E+00  0.00000000E+00  0.00000000E+00
  0.00000000E+00  0.00000000E+00  0.00000000E+00
  0.00000000E+00  0.00000000E+00  0.00000000E+00
  0.00000000E+00  0.00000000E+00  0.00000000E+00
  0.00000000E+00  0.00000000E+00  0.00000000E+00
  0.00000000E+00  0.00000000E+00  0.00000000E+00
  0.00000000E+00  0.00000000E+00  0.00000000E+00
  0.00000000E+00  0.00000000E+00  0.00000000E+00
  0.00000000E+00  0.00000000E+00  0.00000000E+00
  0.00000000E+00  0.00000000E+00  0.00000000E+00
  0.00000000E+00  0.00000000E+00  0.00000000E+00
  0.00000000E+00  0.00000000E+00  0.00000000E+00
  0.00000000E+00  0.00000000E+00  0.00000000E+00
  0.00000000E+00  0.00000000E+00  0.00000000E+00
  0.00000000E+00  0.00000000E+00  0.00000000E+00
  0.00000000E+00  0.00000000E+00  0.00000000E+00
  0.00000000E+00  0.00000000E+00  0.00000000E+00
  0.00000000E+00  0.00000000E+00  0.00000000E+00
  0.00000000E+00  0.00000000E+00  0.00000000E+00
  0.00000000E+00  0.00000000E+00  0.00000000E+00
  0.00000000E+00  0.00000000E+00  0.00000000E+00
