C H                                     
   1.00000000000000     
    40.0000000000000000    0.0000000000000000    0.0000000000000000
     0.0000000000000000   40.0000000000000000    0.0000000000000000
     0.0000000000000000    0.0000000000000000   40.0000000000000000
   C    H 
    10     8
Selective dynamics
Direct
  0.5612417934964267  0.4825809904406930  0.5000000000000000   T   T   T
  0.5612417934964267  0.5174170095593119  0.5000000000000000   T   T   T
  0.5309076788629409  0.5352461237826579  0.5000000000000000   T   T   T
  0.5000000000000000  0.5182249036868480  0.5000000000000000   T   T   T
  0.4690933211370636  0.5352471237826554  0.5000000000000000   T   T   T
  0.4387582065035732  0.5174190095593069  0.5000000000000000   T   T   T
  0.4387582065035732  0.4825829904406879  0.5000000000000000   T   T   T
  0.4690923211370591  0.4647538762173420  0.5000000000000000   T   T   T
  0.5000000000000000  0.4817750963131519  0.5000000000000000   T   T   T
  0.5309066788629363  0.4647528762173445  0.5000000000000000   T   T   T
  0.5310616498486376  0.4374972904440015  0.5000000000000000   T   T   T
  0.4689363501513674  0.4374982904440061  0.5000000000000000   T   T   T
  0.4152354442308759  0.4689055065899281  0.5000000000000000   T   T   T
  0.4152364442308734  0.5310974934100714  0.5000000000000000   T   T   T
  0.4689383501513695  0.5625027095559983  0.5000000000000000   T   T   T
  0.5310636498486325  0.5625017095559938  0.5000000000000000   T   T   T
  0.5847645557691241  0.5310944934100719  0.5000000000000000   T   T   T
  0.5847635557691266  0.4689035065899331  0.5000000000000000   T   T   T
 
  0.00000000E+00  0.00000000E+00  0.00000000E+00
  0.00000000E+00  0.00000000E+00  0.00000000E+00
  0.00000000E+00  0.00000000E+00  0.00000000E+00
  0.00000000E+00  0.00000000E+00  0.00000000E+00
  0.00000000E+00  0.00000000E+00  0.00000000E+00
  0.00000000E+00  0.00000000E+00  0.00000000E+00
  0.00000000E+00  0.00000000E+00  0.00000000E+00
  0.00000000E+00  0.00000000E+00  0.00000000E+00
  0.00000000E+00  0.00000000E+00  0.00000000E+00
  0.00000000E+00  0.00000000E+00  0.00000000E+00
  0.00000000E+00  0.00000000E+00  0.00000000E+00
  0.00000000E+00  0.00000000E+00  0.00000000E+00
  0.00000000E+00  0.00000000E+00  0.00000000E+00
  0.00000000E+00  0.00000000E+00  0.00000000E+00
  0.00000000E+00  0.00000000E+00  0.00000000E+00
  0.00000000E+00  0.00000000E+00  0.00000000E+00
  0.00000000E+00  0.00000000E+00  0.00000000E+00
  0.00000000E+00  0.00000000E+00  0.00000000E+00
