C H                                     
   1.00000000000000     
    40.0000000000000000    0.0000000000000000    0.0000000000000000
     0.0000000000000000   40.0000000000000000    0.0000000000000000
     0.0000000000000000    0.0000000000000000   40.0000000000000000
   C    H 
    10     8
Selective dynamics
Direct
  0.5608801664784266  0.4822840763195089  0.5000000000000000   T   T   T
  0.5608801664784266  0.5177149236804865  0.5000000000000000   T   T   T
  0.5310953636378386  0.5351358102357295  0.5000000000000000   T   T   T
  0.5000000000000000  0.5179750934830949  0.5000000000000000   T   T   T
  0.4689046363621614  0.5351358102357295  0.5000000000000000   T   T   T
  0.4391198335215734  0.5177159236804911  0.5000000000000000   T   T   T
  0.4391198335215734  0.4822850763195135  0.5000000000000000   T   T   T
  0.4689046363621614  0.4648641897642705  0.5000000000000000   T   T   T
  0.5000000000000000  0.4820249065169051  0.5000000000000000   T   T   T
  0.5310953636378386  0.4648641897642705  0.5000000000000000   T   T   T
  0.5310033317038503  0.4375635209271636  0.5000000000000000   T   T   T
  0.4689956682961522  0.4375645209271610  0.5000000000000000   T   T   T
  0.4154094948285945  0.4688065524854892  0.5000000000000000   T   T   T
  0.4154104948285990  0.5311944475145154  0.5000000000000000   T   T   T
  0.4689966682961497  0.5624364790728364  0.5000000000000000   T   T   T
  0.5310043317038478  0.5624354790728390  0.5000000000000000   T   T   T
  0.5845905051714055  0.5311934475145108  0.5000000000000000   T   T   T
  0.5845895051714010  0.4688055524854846  0.5000000000000000   T   T   T
 
  0.00000000E+00  0.00000000E+00  0.00000000E+00
  0.00000000E+00  0.00000000E+00  0.00000000E+00
  0.00000000E+00  0.00000000E+00  0.00000000E+00
  0.00000000E+00  0.00000000E+00  0.00000000E+00
  0.00000000E+00  0.00000000E+00  0.00000000E+00
  0.00000000E+00  0.00000000E+00  0.00000000E+00
  0.00000000E+00  0.00000000E+00  0.00000000E+00
  0.00000000E+00  0.00000000E+00  0.00000000E+00
  0.00000000E+00  0.00000000E+00  0.00000000E+00
  0.00000000E+00  0.00000000E+00  0.00000000E+00
  0.00000000E+00  0.00000000E+00  0.00000000E+00
  0.00000000E+00  0.00000000E+00  0.00000000E+00
  0.00000000E+00  0.00000000E+00  0.00000000E+00
  0.00000000E+00  0.00000000E+00  0.00000000E+00
  0.00000000E+00  0.00000000E+00  0.00000000E+00
  0.00000000E+00  0.00000000E+00  0.00000000E+00
  0.00000000E+00  0.00000000E+00  0.00000000E+00
  0.00000000E+00  0.00000000E+00  0.00000000E+00
