!r2SCAN freq aug-cc-pVTZ d3 TightSCF SlowConv RIJCOSX defgrid2

%pal
nprocs 12
end

%scf
MaxIter 1500
end

%maxcore 5000

!CPCM
%cpcm smd true
SMDsolvent "MeCN"
surfacetype gepol_ses
rsolv 2.19
end 

* xyz 0 1
C           0.89805336470850     -1.41640414907893     -0.00038270506386
C           2.11452061206699     -0.74140151159776      0.00002143987095
C           2.17100194602060      0.66030732953327     -0.00009100750177
C           1.01741514549130      1.43220609505413     -0.00047107503782
C          -0.21833885476312      0.77674320515364     -0.00069700867953
C          -0.23746065702079     -0.62757679094430     -0.00077045997366
O          -1.52808851607429     -1.08088579356515     -0.00055551301961
C          -2.32268681056702      0.03945278973536     -0.00007510637798
C          -1.59751360336188      1.18055165633165     -0.00026717547291
H          -1.99219829633393      2.18427694823291      0.00096412728800
H          -3.38342325673274     -0.15196787059169      0.00116628563916
H           1.07299290501852      2.51446159108434     -0.00047267947262
H           3.13877670906324      1.14779728325903      0.00059885320385
H           3.03603415782170     -1.31099496860176      0.00116660149356
H           0.83996525466295     -2.49758951400472     -0.00004977689578
*
