C N H                                   
   1.00000000000000     
    40.0000000000000000    0.0000000000000000    0.0000000000000000
     0.0000000000000000   40.0000000000000000    0.0000000000000000
     0.0000000000000000    0.0000000000000000   40.0000000000000000
   C    N    H 
     8     2     4
Selective dynamics
Direct
  0.4697772083829790  0.4902272847078635  0.4999996811032901   T   T   T
  0.4697678261290648  0.5254187719785719  0.5000036036834175   T   T   T
  0.5000007979036027  0.5427352117809647  0.4999999477720252   T   T   T
  0.5302329774928438  0.5254171541209232  0.4999932831013041   T   T   T
  0.5302223196746283  0.4902252143572596  0.4999913033208756   T   T   T
  0.4999991168194811  0.4724570980692633  0.4999935717053745   T   T   T
  0.5611821743182972  0.4723949634558906  0.5000029488330853   T   T   T
  0.4388162816195305  0.4723983474132254  0.4999998996195885   T   T   T
  0.5865394061772591  0.4579137563050892  0.5000227719344039   T   T   T
  0.4134590914630749  0.4579174789375244  0.4999971204572589   T   T   T
  0.4999985481734228  0.4452322796495594  0.4999926820192400   T   T   T
  0.5539160722483487  0.5388457611118795  0.4999917734954238   T   T   T
  0.5000012358799921  0.5699706895240197  0.5000031684992550   T   T   T
  0.4460849437174730  0.5388479885879534  0.5000092444554340   T   T   T
 
  0.00000000E+00  0.00000000E+00  0.00000000E+00
  0.00000000E+00  0.00000000E+00  0.00000000E+00
  0.00000000E+00  0.00000000E+00  0.00000000E+00
  0.00000000E+00  0.00000000E+00  0.00000000E+00
  0.00000000E+00  0.00000000E+00  0.00000000E+00
  0.00000000E+00  0.00000000E+00  0.00000000E+00
  0.00000000E+00  0.00000000E+00  0.00000000E+00
  0.00000000E+00  0.00000000E+00  0.00000000E+00
  0.00000000E+00  0.00000000E+00  0.00000000E+00
  0.00000000E+00  0.00000000E+00  0.00000000E+00
  0.00000000E+00  0.00000000E+00  0.00000000E+00
  0.00000000E+00  0.00000000E+00  0.00000000E+00
  0.00000000E+00  0.00000000E+00  0.00000000E+00
  0.00000000E+00  0.00000000E+00  0.00000000E+00
