C N H                                   
   1.00000000000000     
    40.0000000000000000    0.0000000000000000    0.0000000000000000
     0.0000000000000000   40.0000000000000000    0.0000000000000000
     0.0000000000000000    0.0000000000000000   40.0000000000000000
   C    N    H 
     9     2    16
Selective dynamics
Direct
  0.5681084924051188  0.4769844246517049  0.5111028491187248   T   T   T
  0.5121196923991194  0.4792622011886218  0.4913571489055337   T   T   T
  0.4810810573032096  0.5329439984135447  0.4848181056191628   T   T   T
  0.4536133353697810  0.5288404861113226  0.5113568505117742   T   T   T
  0.4325368074852923  0.4972104818638539  0.5068215084056972   T   T   T
  0.4521662884144912  0.4643350017233274  0.5078240676301131   T   T   T
  0.4801827739917775  0.4614893988037647  0.4814573411546243   T   T   T
  0.5405822094260208  0.5321588922987606  0.5036125853183516   T   T   T
  0.5724255987264519  0.5123007726486781  0.4972050225268958   T   T   T
  0.5373195895649029  0.4605299478525398  0.5001480394422868   T   T   T
  0.5115870366105044  0.5136790164488346  0.4910339409503611   T   T   T
  0.4709523679332153  0.4706225830185258  0.4571303849170100   T   T   T
  0.4870403206898879  0.4351475976230289  0.4781648883187843   T   T   T
  0.4631321411719313  0.4606197743565076  0.5328565449196404   T   T   T
  0.4345238940892354  0.4435599210625678  0.5039464326741612   T   T   T
  0.4128419587432755  0.4965439271278958  0.5260643207015229   T   T   T
  0.4195291809449015  0.4989073859314999  0.4825164127495997   T   T   T
  0.4652761674158449  0.5292677452339214  0.5363394368461264   T   T   T
  0.4370472496128837  0.5508072398486911  0.5100011381897626   T   T   T
  0.4709084350868706  0.5267523208471410  0.4599334806357322   T   T   T
  0.4888130056230426  0.5592621165104263  0.4836040026756840   T   T   T
  0.5939236480660653  0.5249783339010466  0.5087518757843629   T   T   T
  0.5770569441234363  0.5110909864036363  0.4700820898927304   T   T   T
  0.5414811568982326  0.5564636649739045  0.4907847203389228   T   T   T
  0.5377565572589140  0.5372849967746575  0.5306482477840699   T   T   T
  0.5685584158572874  0.4777704131290860  0.5387502180750364   T   T   T
  0.5894346747883228  0.4611873712525089  0.5036883459133285   T   T   T
 
  0.00000000E+00  0.00000000E+00  0.00000000E+00
  0.00000000E+00  0.00000000E+00  0.00000000E+00
  0.00000000E+00  0.00000000E+00  0.00000000E+00
  0.00000000E+00  0.00000000E+00  0.00000000E+00
  0.00000000E+00  0.00000000E+00  0.00000000E+00
  0.00000000E+00  0.00000000E+00  0.00000000E+00
  0.00000000E+00  0.00000000E+00  0.00000000E+00
  0.00000000E+00  0.00000000E+00  0.00000000E+00
  0.00000000E+00  0.00000000E+00  0.00000000E+00
  0.00000000E+00  0.00000000E+00  0.00000000E+00
  0.00000000E+00  0.00000000E+00  0.00000000E+00
  0.00000000E+00  0.00000000E+00  0.00000000E+00
  0.00000000E+00  0.00000000E+00  0.00000000E+00
  0.00000000E+00  0.00000000E+00  0.00000000E+00
  0.00000000E+00  0.00000000E+00  0.00000000E+00
  0.00000000E+00  0.00000000E+00  0.00000000E+00
  0.00000000E+00  0.00000000E+00  0.00000000E+00
  0.00000000E+00  0.00000000E+00  0.00000000E+00
  0.00000000E+00  0.00000000E+00  0.00000000E+00
  0.00000000E+00  0.00000000E+00  0.00000000E+00
  0.00000000E+00  0.00000000E+00  0.00000000E+00
  0.00000000E+00  0.00000000E+00  0.00000000E+00
  0.00000000E+00  0.00000000E+00  0.00000000E+00
  0.00000000E+00  0.00000000E+00  0.00000000E+00
  0.00000000E+00  0.00000000E+00  0.00000000E+00
  0.00000000E+00  0.00000000E+00  0.00000000E+00
  0.00000000E+00  0.00000000E+00  0.00000000E+00
