C Cl O H                                
   1.00000000000000     
    40.0000000000000000    0.0000000000000000    0.0000000000000000
     0.0000000000000000   40.0000000000000000    0.0000000000000000
     0.0000000000000000    0.0000000000000000   40.0000000000000000
   C    Cl   O    H 
     7     1     1     5
Selective dynamics
Direct
  0.4971048565598417  0.4688969224356879  0.4999889638474926   T   T   T
  0.4630994025502588  0.4762292753739881  0.4999847974069059   T   T   T
  0.4523484058330521  0.5095552118136732  0.4999960597869715   T   T   T
  0.4757140026654066  0.5355864593401081  0.5000115181646677   T   T   T
  0.5098438126812147  0.5284843378872108  0.5000125720933859   T   T   T
  0.5207529026786797  0.4950702195417314  0.5000018623901605   T   T   T
  0.5562586541373535  0.4851784566921928  0.5000026921721308   T   T   T
  0.5861273733689386  0.5194293454269658  0.5000122755315946   T   T   T
  0.5671217243385768  0.4569825003330398  0.4999969275472658   T   T   T
  0.5279874610550864  0.5487830257965497  0.5000245850512067   T   T   T
  0.4673287235058960  0.5615203866569438  0.5000210011972432   T   T   T
  0.4256813632068074  0.5152469468359201  0.4999955011330023   T   T   T
  0.4448640942252857  0.4559640081185531  0.4999735507933356   T   T   T
  0.5057662231936115  0.4430739037474189  0.4999776928846372   T   T   T
 
  0.00000000E+00  0.00000000E+00  0.00000000E+00
  0.00000000E+00  0.00000000E+00  0.00000000E+00
  0.00000000E+00  0.00000000E+00  0.00000000E+00
  0.00000000E+00  0.00000000E+00  0.00000000E+00
  0.00000000E+00  0.00000000E+00  0.00000000E+00
  0.00000000E+00  0.00000000E+00  0.00000000E+00
  0.00000000E+00  0.00000000E+00  0.00000000E+00
  0.00000000E+00  0.00000000E+00  0.00000000E+00
  0.00000000E+00  0.00000000E+00  0.00000000E+00
  0.00000000E+00  0.00000000E+00  0.00000000E+00
  0.00000000E+00  0.00000000E+00  0.00000000E+00
  0.00000000E+00  0.00000000E+00  0.00000000E+00
  0.00000000E+00  0.00000000E+00  0.00000000E+00
  0.00000000E+00  0.00000000E+00  0.00000000E+00
