C H                                     
   1.00000000000000     
    40.0000000000000000    0.0000000000000000    0.0000000000000000
     0.0000000000000000   40.0000000000000000    0.0000000000000000
     0.0000000000000000    0.0000000000000000   40.0000000000000000
   C    H 
    10     8
Selective dynamics
Direct
  0.5608647757021417  0.4826987870173165  0.5000000000000000   T   T   T
  0.5608647757021417  0.5172992129826884  0.5000000000000000   T   T   T
  0.5306515420854996  0.5348827973071245  0.5000000000000000   T   T   T
  0.5000000000000000  0.5177741650597385  0.5000000000000000   T   T   T
  0.4693494579145048  0.5348837973071220  0.5000000000000000   T   T   T
  0.4391352242978582  0.5173012129826834  0.5000000000000000   T   T   T
  0.4391352242978582  0.4827007870173115  0.5000000000000000   T   T   T
  0.4693484579145002  0.4651172026928755  0.5000000000000000   T   T   T
  0.5000000000000000  0.4822258349402616  0.5000000000000000   T   T   T
  0.5306505420854950  0.4651162026928781  0.5000000000000000   T   T   T
  0.5307096514825492  0.4380336902266510  0.5000000000000000   T   T   T
  0.4692883485174487  0.4380346902266626  0.5000000000000000   T   T   T
  0.4157578468369417  0.4690877915017426  0.5000000000000000   T   T   T
  0.4157588468369392  0.5309152084982569  0.5000000000000000   T   T   T
  0.4692903485174508  0.5619663097733490  0.5000000000000000   T   T   T
  0.5307116514825513  0.5619653097733374  0.5000000000000000   T   T   T
  0.5842421531630584  0.5309122084982574  0.5000000000000000   T   T   T
  0.5842411531630609  0.4690857915017477  0.5000000000000000   T   T   T
 
  0.00000000E+00  0.00000000E+00  0.00000000E+00
  0.00000000E+00  0.00000000E+00  0.00000000E+00
  0.00000000E+00  0.00000000E+00  0.00000000E+00
  0.00000000E+00  0.00000000E+00  0.00000000E+00
  0.00000000E+00  0.00000000E+00  0.00000000E+00
  0.00000000E+00  0.00000000E+00  0.00000000E+00
  0.00000000E+00  0.00000000E+00  0.00000000E+00
  0.00000000E+00  0.00000000E+00  0.00000000E+00
  0.00000000E+00  0.00000000E+00  0.00000000E+00
  0.00000000E+00  0.00000000E+00  0.00000000E+00
  0.00000000E+00  0.00000000E+00  0.00000000E+00
  0.00000000E+00  0.00000000E+00  0.00000000E+00
  0.00000000E+00  0.00000000E+00  0.00000000E+00
  0.00000000E+00  0.00000000E+00  0.00000000E+00
  0.00000000E+00  0.00000000E+00  0.00000000E+00
  0.00000000E+00  0.00000000E+00  0.00000000E+00
  0.00000000E+00  0.00000000E+00  0.00000000E+00
  0.00000000E+00  0.00000000E+00  0.00000000E+00
