C O H                                   
   1.00000000000000     
    40.0000000000000000    0.0000000000000000    0.0000000000000000
     0.0000000000000000   40.0000000000000000    0.0000000000000000
     0.0000000000000000    0.0000000000000000   40.0000000000000000
   C    O    H 
    10     1    12
Selective dynamics
Direct
  0.4856610575508942  0.5214710017734452  0.4999975063215243   T   T   T
  0.4537018467085530  0.5073246244316006  0.4999973208368017   T   T   T
  0.4496756348778094  0.4717559038679749  0.5000001951744163   T   T   T
  0.4778383907488507  0.4512898687337721  0.5000030770408856   T   T   T
  0.5096741543716130  0.4652066950092695  0.5000013220840099   T   T   T
  0.5140083177850602  0.5010272637854102  0.4999978776509711   T   T   T
  0.5465471042273370  0.5162861795887966  0.4999974169906612   T   T   T
  0.5766479502189286  0.4999200820137097  0.5000022254754874   T   T   T
  0.6092847072625647  0.5171306864518057  0.5000000241663857   T   T   T
  0.3938887842645748  0.5164295341421786  0.4999994311313412   T   T   T
  0.4279855088355194  0.5287301252229371  0.4999950557151325   T   T   T
  0.6241242960778788  0.5091131807992533  0.4781790315155323   T   T   T
  0.6241201723331210  0.5091256136887226  0.5218286274206556   T   T   T
  0.6069988836270256  0.5444150729110018  0.4999922558439630   T   T   T
  0.5773568083165173  0.4726375276884763  0.5000099131247551   T   T   T
  0.5468994354510692  0.5436028032708919  0.4999907669267712   T   T   T
  0.5313726248837207  0.4488217507387937  0.5000025646311387   T   T   T
  0.4747454952719806  0.4242637303652165  0.5000037614626647   T   T   T
  0.4248306457084314  0.4607084771778512  0.5000041156827750   T   T   T
  0.3783585526280197  0.5388834300158539  0.5000000102405565   T   T   T
  0.3890845547402347  0.5016379728508015  0.5225754934169066   T   T   T
  0.3890789024266549  0.5016347209809091  0.4774268592245234   T   T   T
  0.4881161716836628  0.5485837544913353  0.4999951479221192   T   T   T
 
  0.00000000E+00  0.00000000E+00  0.00000000E+00
  0.00000000E+00  0.00000000E+00  0.00000000E+00
  0.00000000E+00  0.00000000E+00  0.00000000E+00
  0.00000000E+00  0.00000000E+00  0.00000000E+00
  0.00000000E+00  0.00000000E+00  0.00000000E+00
  0.00000000E+00  0.00000000E+00  0.00000000E+00
  0.00000000E+00  0.00000000E+00  0.00000000E+00
  0.00000000E+00  0.00000000E+00  0.00000000E+00
  0.00000000E+00  0.00000000E+00  0.00000000E+00
  0.00000000E+00  0.00000000E+00  0.00000000E+00
  0.00000000E+00  0.00000000E+00  0.00000000E+00
  0.00000000E+00  0.00000000E+00  0.00000000E+00
  0.00000000E+00  0.00000000E+00  0.00000000E+00
  0.00000000E+00  0.00000000E+00  0.00000000E+00
  0.00000000E+00  0.00000000E+00  0.00000000E+00
  0.00000000E+00  0.00000000E+00  0.00000000E+00
  0.00000000E+00  0.00000000E+00  0.00000000E+00
  0.00000000E+00  0.00000000E+00  0.00000000E+00
  0.00000000E+00  0.00000000E+00  0.00000000E+00
  0.00000000E+00  0.00000000E+00  0.00000000E+00
  0.00000000E+00  0.00000000E+00  0.00000000E+00
  0.00000000E+00  0.00000000E+00  0.00000000E+00
  0.00000000E+00  0.00000000E+00  0.00000000E+00
