C O H                                   
   1.00000000000000     
    25.0000000000000000    0.0000000000000000    0.0000000000000000
     0.0000000000000000   25.0000000000000000    0.0000000000000000
     0.0000000000000000    0.0000000000000000   25.0000000000000000
   C    O    H 
     6     2     4
Selective dynamics
Direct
  0.5000000000000000  0.5000000000000000  0.4417019611590767   T   T   T
  0.4530539834821879  0.4856215786120274  0.4724942135372911   T   T   T
  0.5469460165178121  0.5143784213879725  0.4724942135372911   T   T   T
  0.4530539834821879  0.4856215786120274  0.5275057864627090   T   T   T
  0.5469460165178121  0.5143784213879725  0.5275057864627090   T   T   T
  0.5000000000000000  0.5000000000000000  0.5582980388409233   T   T   T
  0.5000000000000000  0.5000000000000000  0.6096790796053523   T   T   T
  0.5000000000000000  0.5000000000000000  0.3903219203946451   T   T   T
  0.4171248197209586  0.4745784115999398  0.4501392794469697   T   T   T
  0.5828751802790415  0.5254215884000599  0.4501392794469697   T   T   T
  0.4171248197209586  0.4745784115999398  0.5498607205530301   T   T   T
  0.5828751802790415  0.5254215884000599  0.5498607205530301   T   T   T
 
  0.00000000E+00  0.00000000E+00  0.00000000E+00
  0.00000000E+00  0.00000000E+00  0.00000000E+00
  0.00000000E+00  0.00000000E+00  0.00000000E+00
  0.00000000E+00  0.00000000E+00  0.00000000E+00
  0.00000000E+00  0.00000000E+00  0.00000000E+00
  0.00000000E+00  0.00000000E+00  0.00000000E+00
  0.00000000E+00  0.00000000E+00  0.00000000E+00
  0.00000000E+00  0.00000000E+00  0.00000000E+00
  0.00000000E+00  0.00000000E+00  0.00000000E+00
  0.00000000E+00  0.00000000E+00  0.00000000E+00
  0.00000000E+00  0.00000000E+00  0.00000000E+00
  0.00000000E+00  0.00000000E+00  0.00000000E+00
