C H                                     
   1.00000000000000     
    40.0000000000000000    0.0000000000000000    0.0000000000000000
     0.0000000000000000   40.0000000000000000    0.0000000000000000
     0.0000000000000000    0.0000000000000000   40.0000000000000000
   C    H 
    14    10
Selective dynamics
Direct
  0.6021367497961355  0.5305166481766178  0.5000060257148630   T   T   T
  0.6194007641743760  0.5000030832888860  0.4999934117336284   T   T   T
  0.6021411369502333  0.4694871731508710  0.4999859759647259   T   T   T
  0.5677246715239651  0.4691793753046759  0.4999914847318150   T   T   T
  0.5499479897512767  0.4999972809518889  0.5000035896068897   T   T   T
  0.5677198564340258  0.5308183619220537  0.5000110556278244   T   T   T
  0.5153817631177667  0.4999941645250290  0.5000048210448996   T   T   T
  0.4846182034560382  0.4999941918860217  0.5000066416288758   T   T   T
  0.4500515614800329  0.4999972680526072  0.5000084256226088   T   T   T
  0.4322757274644493  0.4691797805719545  0.5000157374017468   T   T   T
  0.3978587812864223  0.4694865382142889  0.5000106205942473   T   T   T
  0.3805991986326788  0.5000019786741965  0.4999964324564264   T   T   T
  0.3978626429620051  0.5305160270534440  0.4999885726041396   T   T   T
  0.4322795709523511  0.5308181611868245  0.4999946788605748   T   T   T
  0.5538170416013302  0.5540283428468384  0.5000188286552393   T   T   T
  0.4461825019469824  0.5540280744264975  0.4999905362134573   T   T   T
  0.3840936655783430  0.5538206777857763  0.4999807045024101   T   T   T
  0.3535164219789703  0.5000035282327310  0.4999914251069971   T   T   T
  0.3840873375788874  0.4461831140094260  0.5000134307723356   T   T   T
  0.4461762419197626  0.4459679651574275  0.5000222629835772   T   T   T
  0.5538242087788096  0.4459681103313270  0.4999875294299579   T   T   T
  0.6159132888767511  0.4461838267526551  0.4999789457330595   T   T   T
  0.6464836913384181  0.5000047876989260  0.4999898773478334   T   T   T
  0.6159059824199981  0.5538215397990428  0.5000099856618569   T   T   T
 
  0.00000000E+00  0.00000000E+00  0.00000000E+00
  0.00000000E+00  0.00000000E+00  0.00000000E+00
  0.00000000E+00  0.00000000E+00  0.00000000E+00
  0.00000000E+00  0.00000000E+00  0.00000000E+00
  0.00000000E+00  0.00000000E+00  0.00000000E+00
  0.00000000E+00  0.00000000E+00  0.00000000E+00
  0.00000000E+00  0.00000000E+00  0.00000000E+00
  0.00000000E+00  0.00000000E+00  0.00000000E+00
  0.00000000E+00  0.00000000E+00  0.00000000E+00
  0.00000000E+00  0.00000000E+00  0.00000000E+00
  0.00000000E+00  0.00000000E+00  0.00000000E+00
  0.00000000E+00  0.00000000E+00  0.00000000E+00
  0.00000000E+00  0.00000000E+00  0.00000000E+00
  0.00000000E+00  0.00000000E+00  0.00000000E+00
  0.00000000E+00  0.00000000E+00  0.00000000E+00
  0.00000000E+00  0.00000000E+00  0.00000000E+00
  0.00000000E+00  0.00000000E+00  0.00000000E+00
  0.00000000E+00  0.00000000E+00  0.00000000E+00
  0.00000000E+00  0.00000000E+00  0.00000000E+00
  0.00000000E+00  0.00000000E+00  0.00000000E+00
  0.00000000E+00  0.00000000E+00  0.00000000E+00
  0.00000000E+00  0.00000000E+00  0.00000000E+00
  0.00000000E+00  0.00000000E+00  0.00000000E+00
  0.00000000E+00  0.00000000E+00  0.00000000E+00
