C N O H                                 
   1.00000000000000     
    40.0000000000000000    0.0000000000000000    0.0000000000000000
     0.0000000000000000   40.0000000000000000    0.0000000000000000
     0.0000000000000000    0.0000000000000000   40.0000000000000000
   C    N    O    H 
     8     1     3     7
Selective dynamics
Direct
  0.5013427452278340  0.4633828410014182  0.4999807736225685   T   T   T
  0.4666187758509437  0.4633392270052646  0.5000102460736268   T   T   T
  0.4499752904975006  0.4940750273962050  0.5000505486532771   T   T   T
  0.4669851000441508  0.5245529908471438  0.5000515458695137   T   T   T
  0.5018175332512708  0.5241441280161034  0.5000171993334879   T   T   T
  0.5192760956413079  0.4936294353629086  0.4999817071314159   T   T   T
  0.5568632156894434  0.4920608008108546  0.4999500088714323   T   T   T
  0.5764330059308250  0.5242067799532073  0.4999359698842261   T   T   T
  0.4131502248173366  0.4942721574561654  0.5000707249477113   T   T   T
  0.5710600914952793  0.4646251794331996  0.4999433101708782   T   T   T
  0.3986266142402632  0.5217393948434562  0.5000977036587957   T   T   T
  0.3983836349286806  0.4669348093979052  0.5000587300624193   T   T   T
  0.5702207683618115  0.5393073965380455  0.5220719224787059   T   T   T
  0.6032001237338159  0.5185410930151131  0.4998731762470050   T   T   T
  0.5701246613116439  0.5393620024896728  0.4778652772779526   T   T   T
  0.5151857545901852  0.5478688723923280  0.5000159967552594   T   T   T
  0.4531281487663256  0.5479623115595889  0.5000736921883525   T   T   T
  0.4524701114507305  0.4401073954555308  0.4999981181915214   T   T   T
  0.5151371041706615  0.4398921570258865  0.4999523485818667   T   T   T
 
  0.00000000E+00  0.00000000E+00  0.00000000E+00
  0.00000000E+00  0.00000000E+00  0.00000000E+00
  0.00000000E+00  0.00000000E+00  0.00000000E+00
  0.00000000E+00  0.00000000E+00  0.00000000E+00
  0.00000000E+00  0.00000000E+00  0.00000000E+00
  0.00000000E+00  0.00000000E+00  0.00000000E+00
  0.00000000E+00  0.00000000E+00  0.00000000E+00
  0.00000000E+00  0.00000000E+00  0.00000000E+00
  0.00000000E+00  0.00000000E+00  0.00000000E+00
  0.00000000E+00  0.00000000E+00  0.00000000E+00
  0.00000000E+00  0.00000000E+00  0.00000000E+00
  0.00000000E+00  0.00000000E+00  0.00000000E+00
  0.00000000E+00  0.00000000E+00  0.00000000E+00
  0.00000000E+00  0.00000000E+00  0.00000000E+00
  0.00000000E+00  0.00000000E+00  0.00000000E+00
  0.00000000E+00  0.00000000E+00  0.00000000E+00
  0.00000000E+00  0.00000000E+00  0.00000000E+00
  0.00000000E+00  0.00000000E+00  0.00000000E+00
  0.00000000E+00  0.00000000E+00  0.00000000E+00
