C N H                                   
   1.00000000000000     
    40.0000000000000000    0.0000000000000000    0.0000000000000000
     0.0000000000000000   40.0000000000000000    0.0000000000000000
     0.0000000000000000    0.0000000000000000   40.0000000000000000
   C    N    H 
     6     1     7
Selective dynamics
Direct
  0.4948706070099185  0.4699259322486923  0.5008175347712120   T   T   T
  0.5295233780936738  0.4700861076152311  0.5008407229021826   T   T   T
  0.5472499648081004  0.4999990000000025  0.5008622580812609   T   T   T
  0.5295233780936738  0.5299128923847644  0.5008407229021826   T   T   T
  0.4948716070099159  0.5300740677513077  0.5008175347712120   T   T   T
  0.4768910174601670  0.5000000000000000  0.5007923896805876   T   T   T
  0.4424370666398456  0.5000009999999975  0.5020048433109969   T   T   T
  0.4308976985330381  0.5210676548275849  0.4944813825968734   T   T   T
  0.4308966985330406  0.4789343451724172  0.4944813825968734   T   T   T
  0.4814104074776724  0.5536200451968585  0.5008237354771942   T   T   T
  0.5428404510594165  0.5535307659764698  0.5007957638729919   T   T   T
  0.5743388667444218  0.4999990000000025  0.5008232296862224   T   T   T
  0.5428394510594190  0.4464682340235185  0.5007957638729919   T   T   T
  0.4814084074776775  0.4463799548031418  0.5008237354771942   T   T   T
 
  0.00000000E+00  0.00000000E+00  0.00000000E+00
  0.00000000E+00  0.00000000E+00  0.00000000E+00
  0.00000000E+00  0.00000000E+00  0.00000000E+00
  0.00000000E+00  0.00000000E+00  0.00000000E+00
  0.00000000E+00  0.00000000E+00  0.00000000E+00
  0.00000000E+00  0.00000000E+00  0.00000000E+00
  0.00000000E+00  0.00000000E+00  0.00000000E+00
  0.00000000E+00  0.00000000E+00  0.00000000E+00
  0.00000000E+00  0.00000000E+00  0.00000000E+00
  0.00000000E+00  0.00000000E+00  0.00000000E+00
  0.00000000E+00  0.00000000E+00  0.00000000E+00
  0.00000000E+00  0.00000000E+00  0.00000000E+00
  0.00000000E+00  0.00000000E+00  0.00000000E+00
  0.00000000E+00  0.00000000E+00  0.00000000E+00
