C N O H                                 
   1.00000000000000     
    40.0000000000000000    0.0000000000000000    0.0000000000000000
     0.0000000000000000   40.0000000000000000    0.0000000000000000
     0.0000000000000000    0.0000000000000000   40.0000000000000000
   C    N    O    H 
     7     1     1     9
Selective dynamics
Direct
  0.5454385940141577  0.5237928267640939  0.5005754332881907   T   T   T
  0.5162518912673448  0.5426864926115016  0.5006196853709781   T   T   T
  0.4845588273989776  0.5277750726196402  0.5007045571569435   T   T   T
  0.4827233030056419  0.4927434623572466  0.5006895991316966   T   T   T
  0.5118775215460616  0.4733497338256640  0.5006027174210388   T   T   T
  0.5434617045997996  0.4885466044135924  0.5005682441900987   T   T   T
  0.4227819608311734  0.4933559593126304  0.5007245799032418   T   T   T
  0.5723393686823925  0.4691985370761884  0.5020467824646602   T   T   T
  0.4533748187504543  0.4748947719614662  0.5006391740393639   T   T   T
  0.5701797729642948  0.4451479533742102  0.4943446241707576   T   T   T
  0.5936426151943408  0.4802142129468336  0.4938516825704724   T   T   T
  0.5094701741793628  0.4461782570016979  0.5005709233190316   T   T   T
  0.4028013575948535  0.4746435110611671  0.5007210187106352   T   T   T
  0.4204746088348230  0.5091804090546717  0.4782875235004767   T   T   T
  0.4205598093959395  0.5091000187976320  0.5232236331076976   T   T   T
  0.4622144522635381  0.5432622066440658  0.5006768861788515   T   T   T
  0.5180276057208175  0.5699096367818370  0.5005571808556653   T   T   T
  0.5698226137560312  0.5360193333958279  0.5005947546202236   T   T   T
 
  0.00000000E+00  0.00000000E+00  0.00000000E+00
  0.00000000E+00  0.00000000E+00  0.00000000E+00
  0.00000000E+00  0.00000000E+00  0.00000000E+00
  0.00000000E+00  0.00000000E+00  0.00000000E+00
  0.00000000E+00  0.00000000E+00  0.00000000E+00
  0.00000000E+00  0.00000000E+00  0.00000000E+00
  0.00000000E+00  0.00000000E+00  0.00000000E+00
  0.00000000E+00  0.00000000E+00  0.00000000E+00
  0.00000000E+00  0.00000000E+00  0.00000000E+00
  0.00000000E+00  0.00000000E+00  0.00000000E+00
  0.00000000E+00  0.00000000E+00  0.00000000E+00
  0.00000000E+00  0.00000000E+00  0.00000000E+00
  0.00000000E+00  0.00000000E+00  0.00000000E+00
  0.00000000E+00  0.00000000E+00  0.00000000E+00
  0.00000000E+00  0.00000000E+00  0.00000000E+00
  0.00000000E+00  0.00000000E+00  0.00000000E+00
  0.00000000E+00  0.00000000E+00  0.00000000E+00
  0.00000000E+00  0.00000000E+00  0.00000000E+00
