C N H                                   
   1.00000000000000     
    40.0000000000000000    0.0000000000000000    0.0000000000000000
     0.0000000000000000   40.0000000000000000    0.0000000000000000
     0.0000000000000000    0.0000000000000000   40.0000000000000000
   C    N    H 
     9     1     7
Selective dynamics
Direct
  0.5293026289327257  0.4680633675549393  0.5000000000000000   T   T   T
  0.5588057767418551  0.4860010484716965  0.5000000000000000   T   T   T
  0.5582037782003191  0.5214511517149854  0.5000000000000000   T   T   T
  0.5281774380209379  0.5385194742137376  0.5000000000000000   T   T   T
  0.4973994879855859  0.5208093089088510  0.5000000000000000   T   T   T
  0.4397115368715208  0.5215964643731841  0.5000000000000000   T   T   T
  0.4376584669133112  0.4862088219312594  0.5000000000000000   T   T   T
  0.4668608910786216  0.4678924674644703  0.5000000000000000   T   T   T
  0.4980134298631888  0.4848866615228874  0.5000000000000000   T   T   T
  0.4681327279676784  0.5386536632825640  0.5000000000000000   T   T   T
  0.4664011932888582  0.4405922736101407  0.5000000000000000   T   T   T
  0.4132232382232239  0.4741293608845443  0.5000000000000000   T   T   T
  0.4166992061191044  0.5363986467807683  0.5000000000000000   T   T   T
  0.5273331813444430  0.5657927804923276  0.5000000000000000   T   T   T
  0.5817153177705714  0.5352802890323506  0.5000000000000000   T   T   T
  0.5827549130289508  0.4729609524287804  0.5000000000000000   T   T   T
  0.5296077876491090  0.4407622673325151  0.5000000000000000   T   T   T
 
  0.00000000E+00  0.00000000E+00  0.00000000E+00
  0.00000000E+00  0.00000000E+00  0.00000000E+00
  0.00000000E+00  0.00000000E+00  0.00000000E+00
  0.00000000E+00  0.00000000E+00  0.00000000E+00
  0.00000000E+00  0.00000000E+00  0.00000000E+00
  0.00000000E+00  0.00000000E+00  0.00000000E+00
  0.00000000E+00  0.00000000E+00  0.00000000E+00
  0.00000000E+00  0.00000000E+00  0.00000000E+00
  0.00000000E+00  0.00000000E+00  0.00000000E+00
  0.00000000E+00  0.00000000E+00  0.00000000E+00
  0.00000000E+00  0.00000000E+00  0.00000000E+00
  0.00000000E+00  0.00000000E+00  0.00000000E+00
  0.00000000E+00  0.00000000E+00  0.00000000E+00
  0.00000000E+00  0.00000000E+00  0.00000000E+00
  0.00000000E+00  0.00000000E+00  0.00000000E+00
  0.00000000E+00  0.00000000E+00  0.00000000E+00
  0.00000000E+00  0.00000000E+00  0.00000000E+00
