C N O H                                 
   1.00000000000000     
    25.0000000000000000    0.0000000000000000    0.0000000000000000
     0.0000000000000000   25.0000000000000000    0.0000000000000000
     0.0000000000000000    0.0000000000000000   25.0000000000000000
   C    N    O    H 
     9     1     2    16
Selective dynamics
Direct
  0.5144617137006947  0.5285981265959856  0.4559089828527815   T   T   T
  0.5401776932785165  0.4744197112756933  0.4410014635545362   T   T   T
  0.5496044020736424  0.4379136660856306  0.4881770629092317   T   T   T
  0.5001410429055685  0.4271134860318790  0.5211091525847175   T   T   T
  0.4718382274481203  0.4781958910752876  0.5413216484174510   T   T   T
  0.5556971605618265  0.5658536392906333  0.4836671366124141   T   T   T
  0.4908631201059039  0.5563973287615587  0.4070139498676266   T   T   T
  0.5038828127199546  0.5046072315661624  0.5875193493135190   T   T   T
  0.4147669320350699  0.4665483411381608  0.5594908048457451   T   T   T
  0.4694698069802066  0.5194038244743165  0.4962322728489610   T   T   T
  0.4303149424333860  0.5473276153612611  0.4931518828453624   T   T   T
  0.5931272671355780  0.4173842798228680  0.4977988771121369   T   T   T
  0.5779144065946893  0.4827304684416141  0.4202738605251938   T   T   T
  0.5133616521646884  0.4531668428029708  0.4132448306074620   T   T   T
  0.5100728397641728  0.4025848461772409  0.5560781744385433   T   T   T
  0.4721666939815163  0.4045258182145925  0.4956531519491338   T   T   T
  0.5361518344418618  0.6013294697980204  0.5004124924646339   T   T   T
  0.5789813264061513  0.5454756769866681  0.5145912764172063   T   T   T
  0.5831973847384758  0.5784927725212025  0.4518530159931871   T   T   T
  0.4776040663416096  0.5971397922866818  0.4162293167011024   T   T   T
  0.4573735751113141  0.5334450281933424  0.3903861737128868   T   T   T
  0.5227577083683103  0.5586604879171942  0.3769563451547711   T   T   T
  0.4878888441832150  0.5442735743079560  0.5971138269081200   T   T   T
  0.5467500526708949  0.5072662371835761  0.5792244992535281   T   T   T
  0.4981738407500912  0.4782670926701711  0.6221781887130087   T   T   T
  0.3964485210983083  0.5012992236516870  0.5789253156969021   T   T   T
  0.3897845404539320  0.4537025109852298  0.5257894556865457   T   T   T
  0.4170265915522894  0.4338790163824179  0.5886974920132926   T   T   T
 
  0.00000000E+00  0.00000000E+00  0.00000000E+00
  0.00000000E+00  0.00000000E+00  0.00000000E+00
  0.00000000E+00  0.00000000E+00  0.00000000E+00
  0.00000000E+00  0.00000000E+00  0.00000000E+00
  0.00000000E+00  0.00000000E+00  0.00000000E+00
  0.00000000E+00  0.00000000E+00  0.00000000E+00
  0.00000000E+00  0.00000000E+00  0.00000000E+00
  0.00000000E+00  0.00000000E+00  0.00000000E+00
  0.00000000E+00  0.00000000E+00  0.00000000E+00
  0.00000000E+00  0.00000000E+00  0.00000000E+00
  0.00000000E+00  0.00000000E+00  0.00000000E+00
  0.00000000E+00  0.00000000E+00  0.00000000E+00
  0.00000000E+00  0.00000000E+00  0.00000000E+00
  0.00000000E+00  0.00000000E+00  0.00000000E+00
  0.00000000E+00  0.00000000E+00  0.00000000E+00
  0.00000000E+00  0.00000000E+00  0.00000000E+00
  0.00000000E+00  0.00000000E+00  0.00000000E+00
  0.00000000E+00  0.00000000E+00  0.00000000E+00
  0.00000000E+00  0.00000000E+00  0.00000000E+00
  0.00000000E+00  0.00000000E+00  0.00000000E+00
  0.00000000E+00  0.00000000E+00  0.00000000E+00
  0.00000000E+00  0.00000000E+00  0.00000000E+00
  0.00000000E+00  0.00000000E+00  0.00000000E+00
  0.00000000E+00  0.00000000E+00  0.00000000E+00
  0.00000000E+00  0.00000000E+00  0.00000000E+00
  0.00000000E+00  0.00000000E+00  0.00000000E+00
  0.00000000E+00  0.00000000E+00  0.00000000E+00
  0.00000000E+00  0.00000000E+00  0.00000000E+00
