C N H                                   
   1.00000000000000     
    40.0000000000000000    0.0000000000000000    0.0000000000000000
     0.0000000000000000   40.0000000000000000    0.0000000000000000
     0.0000000000000000    0.0000000000000000   40.0000000000000000
   C    N    H 
     7     1     9
Selective dynamics
Direct
  0.4772900348510012  0.5301554488501412  0.4994387725715397   T   T   T
  0.5121529966142028  0.5299289477673446  0.4996237443180728   T   T   T
  0.5304543975589896  0.5000067018495494  0.4996188195850670   T   T   T
  0.5681536895752497  0.4999979096087641  0.4989364010835752   T   T   T
  0.5121549440193873  0.4700792908308414  0.4996163835483881   T   T   T
  0.4772958554501197  0.4698517158729750  0.4994308978063710   T   T   T
  0.4591511308981595  0.5000034785995904  0.4993050559585538   T   T   T
  0.4243201149143844  0.4999984056572002  0.4976658695080732   T   T   T
  0.5784473311513296  0.5224563088934885  0.5109624921785094   T   T   T
  0.5777982059157373  0.4995004420949697  0.4731311629815406   T   T   T
  0.5784625804191453  0.4780167322919369  0.5118076223038125   T   T   T
  0.4128015015408709  0.4789374653961326  0.5058541224334372   T   T   T
  0.4127950041032281  0.5210539398641909  0.5058531049378727   T   T   T
  0.4638620504613335  0.4460797828237546  0.4994934687994671   T   T   T
  0.5255038560831682  0.4462492012529732  0.4998676473630000   T   T   T
  0.5255006159145996  0.5537584531097918  0.4998832711050628   T   T   T
  0.4638556905290793  0.5539257752363693  0.4995111635176425   T   T   T
 
  0.00000000E+00  0.00000000E+00  0.00000000E+00
  0.00000000E+00  0.00000000E+00  0.00000000E+00
  0.00000000E+00  0.00000000E+00  0.00000000E+00
  0.00000000E+00  0.00000000E+00  0.00000000E+00
  0.00000000E+00  0.00000000E+00  0.00000000E+00
  0.00000000E+00  0.00000000E+00  0.00000000E+00
  0.00000000E+00  0.00000000E+00  0.00000000E+00
  0.00000000E+00  0.00000000E+00  0.00000000E+00
  0.00000000E+00  0.00000000E+00  0.00000000E+00
  0.00000000E+00  0.00000000E+00  0.00000000E+00
  0.00000000E+00  0.00000000E+00  0.00000000E+00
  0.00000000E+00  0.00000000E+00  0.00000000E+00
  0.00000000E+00  0.00000000E+00  0.00000000E+00
  0.00000000E+00  0.00000000E+00  0.00000000E+00
  0.00000000E+00  0.00000000E+00  0.00000000E+00
  0.00000000E+00  0.00000000E+00  0.00000000E+00
  0.00000000E+00  0.00000000E+00  0.00000000E+00
