C N O H                                 
   1.00000000000000     
    40.0000000000000000    0.0000000000000000    0.0000000000000000
     0.0000000000000000   40.0000000000000000    0.0000000000000000
     0.0000000000000000    0.0000000000000000   40.0000000000000000
   C    N    O    H 
     7     1     1     7
Selective dynamics
Direct
  0.5161060733234493  0.4675713368887244  0.5000000000000000   T   T   T
  0.5499536878750320  0.4740348323027490  0.5000000000000000   T   T   T
  0.5613281630631093  0.5074796625469702  0.5000000000000000   T   T   T
  0.5386775543269167  0.5345366353013148  0.5000000000000000   T   T   T
  0.5047605747705788  0.5285305434482979  0.5000000000000000   T   T   T
  0.4928361856107841  0.4946732587194660  0.5000000000000000   T   T   T
  0.4582293334170515  0.4868613373712520  0.5000000000000000   T   T   T
  0.4359390818474083  0.5114638523793431  0.5000000000000000   T   T   T
  0.4047893516501517  0.4987417276278165  0.5000009999999975   T   T   T
  0.3898772525929317  0.5183007477159904  0.5000009999999975   T   T   T
  0.4498038150590205  0.4607750721455801  0.5000000000000000   T   T   T
  0.4867793883128257  0.5489697585357760  0.5000000000000000   T   T   T
  0.5481390278589657  0.5600570448334210  0.5000000000000000   T   T   T
  0.5881315434617065  0.5124435852737221  0.4999990000000025   T   T   T
  0.5679042797722929  0.4535826325234993  0.4999990000000025   T   T   T
  0.5067456870577800  0.4419779723860913  0.5000000000000000   T   T   T
 
  0.00000000E+00  0.00000000E+00  0.00000000E+00
  0.00000000E+00  0.00000000E+00  0.00000000E+00
  0.00000000E+00  0.00000000E+00  0.00000000E+00
  0.00000000E+00  0.00000000E+00  0.00000000E+00
  0.00000000E+00  0.00000000E+00  0.00000000E+00
  0.00000000E+00  0.00000000E+00  0.00000000E+00
  0.00000000E+00  0.00000000E+00  0.00000000E+00
  0.00000000E+00  0.00000000E+00  0.00000000E+00
  0.00000000E+00  0.00000000E+00  0.00000000E+00
  0.00000000E+00  0.00000000E+00  0.00000000E+00
  0.00000000E+00  0.00000000E+00  0.00000000E+00
  0.00000000E+00  0.00000000E+00  0.00000000E+00
  0.00000000E+00  0.00000000E+00  0.00000000E+00
  0.00000000E+00  0.00000000E+00  0.00000000E+00
  0.00000000E+00  0.00000000E+00  0.00000000E+00
  0.00000000E+00  0.00000000E+00  0.00000000E+00
