C O H                                   
   1.00000000000000     
    40.0000000000000000    0.0000000000000000    0.0000000000000000
     0.0000000000000000   40.0000000000000000    0.0000000000000000
     0.0000000000000000    0.0000000000000000   40.0000000000000000
   C    O    H 
     9     1     8
Selective dynamics
Direct
  0.4883899036931609  0.4768841422311638  0.4999899431370736   T   T   T
  0.4737512420684098  0.5093919240165548  0.4999968647441619   T   T   T
  0.4941125395490715  0.5388043254546986  0.4999978256405697   T   T   T
  0.5282181954592247  0.5357733647520817  0.4999935158201367   T   T   T
  0.5432597589959443  0.5033123746554509  0.4999912920326821   T   T   T
  0.5225782821079079  0.4740670660043165  0.4999883618209182   T   T   T
  0.5780346792932605  0.5000524720954331  0.5000013434585568   T   T   T
  0.6084972183872779  0.4972830385563540  0.5000157592700916   T   T   T
  0.4177045744003252  0.4870380025994052  0.5000065122205797   T   T   T
  0.4411675319120221  0.5149189928566926  0.5000013418227525   T   T   T
  0.5343802985746251  0.4495425270563800  0.4999841541181880   T   T   T
  0.6352622895885034  0.4948157165158875  0.5000281445857979   T   T   T
  0.5441793096700280  0.5578179008059649  0.4999927910663686   T   T   T
  0.4818503750828143  0.5631157872345298  0.4999991411367262   T   T   T
  0.3930363751525618  0.4986873950795925  0.5000142140082957   T   T   T
  0.4213586227804242  0.4719505474056902  0.4774114373372029   T   T   T
  0.4213717041991956  0.4719485548362101  0.5225993217780882   T   T   T
  0.4728460990852525  0.4545958678435724  0.4999880360017954   T   T   T
 
  0.00000000E+00  0.00000000E+00  0.00000000E+00
  0.00000000E+00  0.00000000E+00  0.00000000E+00
  0.00000000E+00  0.00000000E+00  0.00000000E+00
  0.00000000E+00  0.00000000E+00  0.00000000E+00
  0.00000000E+00  0.00000000E+00  0.00000000E+00
  0.00000000E+00  0.00000000E+00  0.00000000E+00
  0.00000000E+00  0.00000000E+00  0.00000000E+00
  0.00000000E+00  0.00000000E+00  0.00000000E+00
  0.00000000E+00  0.00000000E+00  0.00000000E+00
  0.00000000E+00  0.00000000E+00  0.00000000E+00
  0.00000000E+00  0.00000000E+00  0.00000000E+00
  0.00000000E+00  0.00000000E+00  0.00000000E+00
  0.00000000E+00  0.00000000E+00  0.00000000E+00
  0.00000000E+00  0.00000000E+00  0.00000000E+00
  0.00000000E+00  0.00000000E+00  0.00000000E+00
  0.00000000E+00  0.00000000E+00  0.00000000E+00
  0.00000000E+00  0.00000000E+00  0.00000000E+00
  0.00000000E+00  0.00000000E+00  0.00000000E+00
