C F O H                                 
   1.00000000000000     
    40.0000000000000000    0.0000000000000000    0.0000000000000000
     0.0000000000000000   40.0000000000000000    0.0000000000000000
     0.0000000000000000    0.0000000000000000   40.0000000000000000
   C    F    O    H 
     8     1     1     7
Selective dynamics
Direct
  0.5100994176756525  0.5233328973965922  0.5000040971471231   T   T   T
  0.5449793291139461  0.5240778806972012  0.5000077746677974   T   T   T
  0.5619282947582388  0.4937224172487435  0.5000069335210278   T   T   T
  0.5457740867662083  0.4628594113324545  0.5000015399821310   T   T   T
  0.5109915107102556  0.4626850737638102  0.4999969013231061   T   T   T
  0.4926830352315332  0.4927558173924318  0.4999969734328013   T   T   T
  0.4553698950942303  0.4911556942728730  0.4999951849043128   T   T   T
  0.4356562432209406  0.5233457540429464  0.4999945865779067   T   T   T
  0.5961530145344280  0.4941589636207899  0.5000072708475112   T   T   T
  0.4408428472813076  0.4637924390265443  0.4999947677309977   T   T   T
  0.4417232695421199  0.5385345066174347  0.5221127341175441   T   T   T
  0.4417309208601193  0.5385404653775434  0.4778822003669012   T   T   T
  0.4088802227224856  0.5176616830091595  0.4999900263862057   T   T   T
  0.4974396146436111  0.4390372194482502  0.4999940788392625   T   T   T
  0.5602661500728553  0.4397917651600669  0.4999993575910048   T   T   T
  0.5588397111056516  0.5475288838426848  0.5000128503797581   T   T   T
  0.4966424366664091  0.5470191277504878  0.5000037221846060   T   T   T
 
  0.00000000E+00  0.00000000E+00  0.00000000E+00
  0.00000000E+00  0.00000000E+00  0.00000000E+00
  0.00000000E+00  0.00000000E+00  0.00000000E+00
  0.00000000E+00  0.00000000E+00  0.00000000E+00
  0.00000000E+00  0.00000000E+00  0.00000000E+00
  0.00000000E+00  0.00000000E+00  0.00000000E+00
  0.00000000E+00  0.00000000E+00  0.00000000E+00
  0.00000000E+00  0.00000000E+00  0.00000000E+00
  0.00000000E+00  0.00000000E+00  0.00000000E+00
  0.00000000E+00  0.00000000E+00  0.00000000E+00
  0.00000000E+00  0.00000000E+00  0.00000000E+00
  0.00000000E+00  0.00000000E+00  0.00000000E+00
  0.00000000E+00  0.00000000E+00  0.00000000E+00
  0.00000000E+00  0.00000000E+00  0.00000000E+00
  0.00000000E+00  0.00000000E+00  0.00000000E+00
  0.00000000E+00  0.00000000E+00  0.00000000E+00
  0.00000000E+00  0.00000000E+00  0.00000000E+00
