C N H                                   
   1.00000000000000     
    40.0000000000000000    0.0000000000000000    0.0000000000000000
     0.0000000000000000   40.0000000000000000    0.0000000000000000
     0.0000000000000000    0.0000000000000000   40.0000000000000000
   C    N    H 
     8     1    11
Selective dynamics
Direct
  0.4801156131101563  0.5303442040135438  0.5001110199355164   T   T   T
  0.4452420671303586  0.5300530336103889  0.5003183677898034   T   T   T
  0.4273051933626473  0.5000016063999088  0.5004170436318556   T   T   T
  0.4452409763434647  0.4699500825337561  0.5003118744423242   T   T   T
  0.4801142027958601  0.4696572675682863  0.5001050411980871   T   T   T
  0.4985923737498333  0.5000007932734166  0.4999821005444692   T   T   T
  0.5512145060002012  0.5314190865347344  0.4997116926196437   T   T   T
  0.5512125837311798  0.4685772676487284  0.4997182439054693   T   T   T
  0.5329937908988642  0.4999987592032715  0.4997215087048251   T   T   T
  0.5780817065176167  0.5262768076144820  0.4995135207183311   T   T   T
  0.5452696528148955  0.5467135248118026  0.4775327417602815   T   T   T
  0.5455752127566709  0.5465565177789000  0.5220837306242723   T   T   T
  0.5780799513148015  0.4737188626174679  0.4995388122007197   T   T   T
  0.5455582848545026  0.4534397548042933  0.5220872197849751   T   T   T
  0.5452805904356027  0.4532840959763086  0.4775348346853067   T   T   T
  0.4930956365470847  0.4457260905518720  0.5000015982265947   T   T   T
  0.4319376490999454  0.4460926587961309  0.5003666839504244   T   T   T
  0.4000533301670100  0.5000024201681798  0.5005514274521253   T   T   T
  0.4319397170402812  0.5539112082611117  0.5003797198837725   T   T   T
  0.4930979613290211  0.5542749578334190  0.5000138179412007   T   T   T
 
  0.00000000E+00  0.00000000E+00  0.00000000E+00
  0.00000000E+00  0.00000000E+00  0.00000000E+00
  0.00000000E+00  0.00000000E+00  0.00000000E+00
  0.00000000E+00  0.00000000E+00  0.00000000E+00
  0.00000000E+00  0.00000000E+00  0.00000000E+00
  0.00000000E+00  0.00000000E+00  0.00000000E+00
  0.00000000E+00  0.00000000E+00  0.00000000E+00
  0.00000000E+00  0.00000000E+00  0.00000000E+00
  0.00000000E+00  0.00000000E+00  0.00000000E+00
  0.00000000E+00  0.00000000E+00  0.00000000E+00
  0.00000000E+00  0.00000000E+00  0.00000000E+00
  0.00000000E+00  0.00000000E+00  0.00000000E+00
  0.00000000E+00  0.00000000E+00  0.00000000E+00
  0.00000000E+00  0.00000000E+00  0.00000000E+00
  0.00000000E+00  0.00000000E+00  0.00000000E+00
  0.00000000E+00  0.00000000E+00  0.00000000E+00
  0.00000000E+00  0.00000000E+00  0.00000000E+00
  0.00000000E+00  0.00000000E+00  0.00000000E+00
  0.00000000E+00  0.00000000E+00  0.00000000E+00
  0.00000000E+00  0.00000000E+00  0.00000000E+00
