!PBE0 freq def2-SV(p) d3 TightSCF SlowConv RIJCOSX defgrid2

%pal
nprocs 12
end

%scf
MaxIter 1500
end

%maxcore 5000

!CPCM
%cpcm smd true
SMDsolvent "MeCN"
surfacetype gepol_ses
rsolv 2.19
end 

* xyz 0 1
C          -0.33604317596771      0.79280487847326     -0.00098613988752
C          -1.63281473139357      0.25820656905549     -0.00111089968587
C          -1.80739684065132     -1.13016321483450     -0.00026619025517
C          -0.67619109876408     -1.95425373346990      0.00094150318822
C           0.60786998459555     -1.42654512859750      0.00121956096937
C           0.79580341198809     -0.02906116835656      0.00008454634563
C           2.11996025295673      0.60707089767340      0.00049206405491
C           3.31461254079856     -0.00812632833138     -0.00110647366782
C           4.62914479454739      0.69379312051013      0.00008613415215
H           5.23000328210259      0.41217004381730     -0.88577269622398
H           5.23120615794940      0.40604704555991      0.88316249705386
H           4.51061427773946      1.79095360471702      0.00386034539482
H           3.35895082418432     -1.10586309321053     -0.00362336873673
H           2.10362344722628      1.70560221792701      0.00227554098810
H           1.46717989714828     -2.10203778119602      0.00287409719124
H          -0.81397062420938     -3.04015938323378      0.00204642786708
H          -2.80269132518786     -1.57836607337086     -0.00082330396268
O          -2.64025484428187      1.15101743282404     -0.00191714142278
C          -3.96365517324736      0.67820071412001      0.00003379453382
H          -4.61255083343445      1.56700935762368     -0.00022363897095
H          -4.18242510489586      0.07657028758754      0.90204375300603
H          -4.18446357674066      0.07483736312193     -0.90024455515424
H          -0.22934734246250      1.88165537159034     -0.00179125677749
*
