C H                                     
   1.00000000000000     
    40.0000000000000000    0.0000000000000000    0.0000000000000000
     0.0000000000000000   40.0000000000000000    0.0000000000000000
     0.0000000000000000    0.0000000000000000   40.0000000000000000
   C    H 
     8     6
Selective dynamics
Direct
  0.5344848137828678  0.4697599206624787  0.4999996868899573   T   T   T
  0.5520286232907843  0.5000002971966092  0.5000000116989380   T   T   T
  0.5344824601109915  0.5302389785257922  0.4999996875199658   T   T   T
  0.4996281198437806  0.5303695406128501  0.4999987381663084   T   T   T
  0.4817175408724433  0.4999981680008903  0.4999987927889319   T   T   T
  0.4996301458271218  0.4696266778875397  0.4999987380640790   T   T   T
  0.4461181342818833  0.4999996385540469  0.4999970151641782   T   T   T
  0.4157459207345359  0.5000090344829136  0.4999994028532738   T   T   T
  0.4859023998484047  0.4460875989008232  0.4999979506748724   T   T   T
  0.3889910548062019  0.5000006860283087  0.5000116912138973   T   T   T
  0.4858975846740437  0.5539064183939615  0.4999979396553227   T   T   T
  0.5480426367566179  0.5538985095057909  0.5000000922790961   T   T   T
  0.5792828414150667  0.5000016476129903  0.5000001608258515   T   T   T
  0.5480477237552568  0.4461018836350074  0.5000000922053349   T   T   T
 
  0.00000000E+00  0.00000000E+00  0.00000000E+00
  0.00000000E+00  0.00000000E+00  0.00000000E+00
  0.00000000E+00  0.00000000E+00  0.00000000E+00
  0.00000000E+00  0.00000000E+00  0.00000000E+00
  0.00000000E+00  0.00000000E+00  0.00000000E+00
  0.00000000E+00  0.00000000E+00  0.00000000E+00
  0.00000000E+00  0.00000000E+00  0.00000000E+00
  0.00000000E+00  0.00000000E+00  0.00000000E+00
  0.00000000E+00  0.00000000E+00  0.00000000E+00
  0.00000000E+00  0.00000000E+00  0.00000000E+00
  0.00000000E+00  0.00000000E+00  0.00000000E+00
  0.00000000E+00  0.00000000E+00  0.00000000E+00
  0.00000000E+00  0.00000000E+00  0.00000000E+00
  0.00000000E+00  0.00000000E+00  0.00000000E+00
