C F O H                                 
   1.00000000000000     
    40.0000000000000000    0.0000000000000000    0.0000000000000000
     0.0000000000000000   40.0000000000000000    0.0000000000000000
     0.0000000000000000    0.0000000000000000   40.0000000000000000
   C    F    O    H 
     8     1     1     7
Selective dynamics
Direct
  0.5101153572304991  0.5232729606269277  0.5000044526084317   T   T   T
  0.5449748127442503  0.5240316546323074  0.5000102822430035   T   T   T
  0.5620292238894304  0.4937342526741001  0.5000070880406047   T   T   T
  0.5457573501958101  0.4629270660343837  0.5000006032370078   T   T   T
  0.5109968397098846  0.4627222155438356  0.4999974288726723   T   T   T
  0.4926880542705330  0.4927472890150749  0.4999984426107885   T   T   T
  0.4553494333539623  0.4910377038353888  0.4999946599277690   T   T   T
  0.4356921897144298  0.5233574895733333  0.4999943657966067   T   T   T
  0.5961404478306719  0.4941735105758146  0.5000073540082327   T   T   T
  0.4408469264683851  0.4637867177715787  0.4999953926103916   T   T   T
  0.4417296734871402  0.5385634275494017  0.5220985296026507   T   T   T
  0.4417377736518343  0.5385678522531232  0.4778951843620048   T   T   T
  0.4089451657389871  0.5176179852025584  0.4999891763971301   T   T   T
  0.4972837624614461  0.4391770187377161  0.4999928940430113   T   T   T
  0.5602831225643816  0.4398916015222481  0.4999990239006057   T   T   T
  0.5588320922708033  0.5474734237596346  0.5000123753982791   T   T   T
  0.4965977744175438  0.5469178306925948  0.5000037463408212   T   T   T
 
  0.00000000E+00  0.00000000E+00  0.00000000E+00
  0.00000000E+00  0.00000000E+00  0.00000000E+00
  0.00000000E+00  0.00000000E+00  0.00000000E+00
  0.00000000E+00  0.00000000E+00  0.00000000E+00
  0.00000000E+00  0.00000000E+00  0.00000000E+00
  0.00000000E+00  0.00000000E+00  0.00000000E+00
  0.00000000E+00  0.00000000E+00  0.00000000E+00
  0.00000000E+00  0.00000000E+00  0.00000000E+00
  0.00000000E+00  0.00000000E+00  0.00000000E+00
  0.00000000E+00  0.00000000E+00  0.00000000E+00
  0.00000000E+00  0.00000000E+00  0.00000000E+00
  0.00000000E+00  0.00000000E+00  0.00000000E+00
  0.00000000E+00  0.00000000E+00  0.00000000E+00
  0.00000000E+00  0.00000000E+00  0.00000000E+00
  0.00000000E+00  0.00000000E+00  0.00000000E+00
  0.00000000E+00  0.00000000E+00  0.00000000E+00
  0.00000000E+00  0.00000000E+00  0.00000000E+00
