C H                                     
   1.00000000000000     
    40.0000000000000000    0.0000000000000000    0.0000000000000000
     0.0000000000000000   40.0000000000000000    0.0000000000000000
     0.0000000000000000    0.0000000000000000   40.0000000000000000
   C    H 
    10    12
Selective dynamics
Direct
  0.5268599193201273  0.4685924085897349  0.5000027131464726   T   T   T
  0.5361129694810051  0.5025200731911131  0.5000018316847510   T   T   T
  0.5103045102803782  0.5264024514654763  0.5000018515062896   T   T   T
  0.4764475336440778  0.5176599782732018  0.5000006794595369   T   T   T
  0.4676068805059307  0.4834709110732365  0.5000014818628429   T   T   T
  0.4932725964321389  0.4595267577013106  0.5000036155167928   T   T   T
  0.4315282217810049  0.4728699034321958  0.5000003296810932   T   T   T
  0.4499202462378953  0.5443579422422571  0.4999988892596471   T   T   T
  0.5709433077533594  0.5140379264172246  0.5000028487167929   T   T   T
  0.5986959758922481  0.4951170780004640  0.4999914383923552   T   T   T
  0.4865688118558021  0.4330488666456231  0.5000053821113140   T   T   T
  0.4291582762318473  0.4455375617692875  0.5000022391887683   T   T   T
  0.4181502699678823  0.4825540814650160  0.4779646643292180   T   T   T
  0.4181475672640501  0.4825575867919566  0.5220327396912625   T   T   T
  0.4335442478693724  0.5423147535478129  0.5220370460057518   T   T   T
  0.4335422074223770  0.5423096830720172  0.4779627306887523   T   T   T
  0.4610080451304361  0.5694498722869337  0.4999956672297960   T   T   T
  0.5170033894708103  0.5529145244461502  0.5000015094942873   T   T   T
  0.5978770206438215  0.4678536530684996  0.4999781583481135   T   T   T
  0.6234238642661267  0.5065361520326066  0.4999922936634428   T   T   T
  0.5739416682943277  0.5412618643717618  0.5000143050934251   T   T   T
  0.5459414702549905  0.4491069701161315  0.5000075849293016   T   T   T
 
  0.00000000E+00  0.00000000E+00  0.00000000E+00
  0.00000000E+00  0.00000000E+00  0.00000000E+00
  0.00000000E+00  0.00000000E+00  0.00000000E+00
  0.00000000E+00  0.00000000E+00  0.00000000E+00
  0.00000000E+00  0.00000000E+00  0.00000000E+00
  0.00000000E+00  0.00000000E+00  0.00000000E+00
  0.00000000E+00  0.00000000E+00  0.00000000E+00
  0.00000000E+00  0.00000000E+00  0.00000000E+00
  0.00000000E+00  0.00000000E+00  0.00000000E+00
  0.00000000E+00  0.00000000E+00  0.00000000E+00
  0.00000000E+00  0.00000000E+00  0.00000000E+00
  0.00000000E+00  0.00000000E+00  0.00000000E+00
  0.00000000E+00  0.00000000E+00  0.00000000E+00
  0.00000000E+00  0.00000000E+00  0.00000000E+00
  0.00000000E+00  0.00000000E+00  0.00000000E+00
  0.00000000E+00  0.00000000E+00  0.00000000E+00
  0.00000000E+00  0.00000000E+00  0.00000000E+00
  0.00000000E+00  0.00000000E+00  0.00000000E+00
  0.00000000E+00  0.00000000E+00  0.00000000E+00
  0.00000000E+00  0.00000000E+00  0.00000000E+00
  0.00000000E+00  0.00000000E+00  0.00000000E+00
  0.00000000E+00  0.00000000E+00  0.00000000E+00
