C N H                                   
   1.00000000000000     
    40.0000000000000000    0.0000000000000000    0.0000000000000000
     0.0000000000000000   40.0000000000000000    0.0000000000000000
     0.0000000000000000    0.0000000000000000   40.0000000000000000
   C    N    H 
     9     1     7
Selective dynamics
Direct
  0.5288784448486731  0.4683791417214500  0.5000000000000000   T   T   T
  0.5591034359463172  0.4865816916883818  0.5000000000000000   T   T   T
  0.5585613196283584  0.5210992689349597  0.5000000000000000   T   T   T
  0.5278631450034061  0.5382106380485954  0.5000000000000000   T   T   T
  0.4970560657282350  0.5204434320176926  0.5000000000000000   T   T   T
  0.4397604931902071  0.5213433930063996  0.5000000000000000   T   T   T
  0.4376734985631012  0.4864814886379891  0.5000000000000000   T   T   T
  0.4670142020629932  0.4678588250049418  0.5000000000000000   T   T   T
  0.4976809996728426  0.4849041168622932  0.5000000000000000   T   T   T
  0.4685883373676131  0.5382908790672444  0.5000000000000000   T   T   T
  0.4664301648019052  0.4407831751592180  0.5000000000000000   T   T   T
  0.4134979551864284  0.4743516818263738  0.5000000000000000   T   T   T
  0.4171933314717648  0.5363699465174342  0.5000000000000000   T   T   T
  0.5268904556697631  0.5652729698584320  0.5000000000000000   T   T   T
  0.5816844509682024  0.5351348131970237  0.5000000000000000   T   T   T
  0.5826105749577595  0.4732100365142651  0.5000000000000000   T   T   T
  0.5295141249324196  0.4412835019373367  0.5000000000000000   T   T   T
 
  0.00000000E+00  0.00000000E+00  0.00000000E+00
  0.00000000E+00  0.00000000E+00  0.00000000E+00
  0.00000000E+00  0.00000000E+00  0.00000000E+00
  0.00000000E+00  0.00000000E+00  0.00000000E+00
  0.00000000E+00  0.00000000E+00  0.00000000E+00
  0.00000000E+00  0.00000000E+00  0.00000000E+00
  0.00000000E+00  0.00000000E+00  0.00000000E+00
  0.00000000E+00  0.00000000E+00  0.00000000E+00
  0.00000000E+00  0.00000000E+00  0.00000000E+00
  0.00000000E+00  0.00000000E+00  0.00000000E+00
  0.00000000E+00  0.00000000E+00  0.00000000E+00
  0.00000000E+00  0.00000000E+00  0.00000000E+00
  0.00000000E+00  0.00000000E+00  0.00000000E+00
  0.00000000E+00  0.00000000E+00  0.00000000E+00
  0.00000000E+00  0.00000000E+00  0.00000000E+00
  0.00000000E+00  0.00000000E+00  0.00000000E+00
  0.00000000E+00  0.00000000E+00  0.00000000E+00
