C N H                                   
   1.00000000000000     
    40.0000000000000000    0.0000000000000000    0.0000000000000000
     0.0000000000000000   40.0000000000000000    0.0000000000000000
     0.0000000000000000    0.0000000000000000   40.0000000000000000
   C    N    H 
     8     2     4
Selective dynamics
Direct
  0.4700644332535656  0.4903150138297894  0.4999996667811847   T   T   T
  0.4699432384884806  0.5252504740589937  0.5000038141692363   T   T   T
  0.5000008945363090  0.5424627455631555  0.4999996384844619   T   T   T
  0.5300573824557289  0.5252495147466303  0.4999932258153890   T   T   T
  0.5299347822261451  0.4903141887850178  0.4999939892051544   T   T   T
  0.4999996572851272  0.4725602072774954  0.4999936077164011   T   T   T
  0.5608381069261904  0.4725252943989295  0.5000035403871120   T   T   T
  0.4391608882541874  0.4725268746334713  0.4999990254431413   T   T   T
  0.5859620376060420  0.4582419956858204  0.5000201028116193   T   T   T
  0.4140357809004699  0.4582450280015504  0.4999975457640398   T   T   T
  0.4999988428758115  0.4455326321423133  0.4999930326089532   T   T   T
  0.5535699590121574  0.5386370886327984  0.4999917375267726   T   T   T
  0.5000010257997891  0.5695022331986475  0.5000026772083370   T   T   T
  0.4464309703800006  0.5386387090453890  0.5000093960781734   T   T   T
 
  0.00000000E+00  0.00000000E+00  0.00000000E+00
  0.00000000E+00  0.00000000E+00  0.00000000E+00
  0.00000000E+00  0.00000000E+00  0.00000000E+00
  0.00000000E+00  0.00000000E+00  0.00000000E+00
  0.00000000E+00  0.00000000E+00  0.00000000E+00
  0.00000000E+00  0.00000000E+00  0.00000000E+00
  0.00000000E+00  0.00000000E+00  0.00000000E+00
  0.00000000E+00  0.00000000E+00  0.00000000E+00
  0.00000000E+00  0.00000000E+00  0.00000000E+00
  0.00000000E+00  0.00000000E+00  0.00000000E+00
  0.00000000E+00  0.00000000E+00  0.00000000E+00
  0.00000000E+00  0.00000000E+00  0.00000000E+00
  0.00000000E+00  0.00000000E+00  0.00000000E+00
  0.00000000E+00  0.00000000E+00  0.00000000E+00
