C O H                                   
   1.00000000000000     
    25.0000000000000000    0.0000000000000000    0.0000000000000000
     0.0000000000000000   25.0000000000000000    0.0000000000000000
     0.0000000000000000    0.0000000000000000   25.0000000000000000
   C    O    H 
     7     2     6
Selective dynamics
Direct
  0.4753111779027304  0.4972276502351582  0.4280929110616735   T   T   T
  0.4299535209675588  0.4779804015638144  0.4584548676338733   T   T   T
  0.5221441370808718  0.5116995534561267  0.4588922579764590   T   T   T
  0.4317823290295145  0.4739138532041886  0.5132888509339226   T   T   T
  0.5248234364750074  0.5078903628619433  0.5138702731032488   T   T   T
  0.4786572567615469  0.4883954603859447  0.5440311062150317   T   T   T
  0.5742918466215244  0.5232849741756973  0.5443813763121342   T   T   T
  0.4796838415030663  0.4843165137482784  0.5952083527048511   T   T   T
  0.4741575925916834  0.5012597222620581  0.3768258635838518   T   T   T
  0.3939923252845213  0.4667419807920987  0.4362433038502920   T   T   T
  0.5567091908756922  0.5262931361847838  0.4363064509463353   T   T   T
  0.3971853983273426  0.4592959218835329  0.5357222629538542   T   T   T
  0.5656391327263254  0.5551404330727305  0.5735284909151658   T   T   T
  0.5896942914272613  0.4893277893100276  0.5678052078162945   T   T   T
  0.6059745224253605  0.5372312468636050  0.5173494239930166   T   T   T
 
  0.00000000E+00  0.00000000E+00  0.00000000E+00
  0.00000000E+00  0.00000000E+00  0.00000000E+00
  0.00000000E+00  0.00000000E+00  0.00000000E+00
  0.00000000E+00  0.00000000E+00  0.00000000E+00
  0.00000000E+00  0.00000000E+00  0.00000000E+00
  0.00000000E+00  0.00000000E+00  0.00000000E+00
  0.00000000E+00  0.00000000E+00  0.00000000E+00
  0.00000000E+00  0.00000000E+00  0.00000000E+00
  0.00000000E+00  0.00000000E+00  0.00000000E+00
  0.00000000E+00  0.00000000E+00  0.00000000E+00
  0.00000000E+00  0.00000000E+00  0.00000000E+00
  0.00000000E+00  0.00000000E+00  0.00000000E+00
  0.00000000E+00  0.00000000E+00  0.00000000E+00
  0.00000000E+00  0.00000000E+00  0.00000000E+00
  0.00000000E+00  0.00000000E+00  0.00000000E+00
