C N H                                   
   1.00000000000000     
    40.0000000000000000    0.0000000000000000    0.0000000000000000
     0.0000000000000000   40.0000000000000000    0.0000000000000000
     0.0000000000000000    0.0000000000000000   40.0000000000000000
   C    N    H 
     6     1    15
Selective dynamics
Direct
  0.4746954730079139  0.5012727559980465  0.5212869197650208   T   T   T
  0.4404263732577746  0.4979622166829829  0.5037302743704301   T   T   T
  0.5150632061629850  0.4754304667605496  0.4796628377419223   T   T   T
  0.5140398652207394  0.4424756043590719  0.4985518268247491   T   T   T
  0.5128802993989264  0.5371526717783143  0.4873084668615696   T   T   T
  0.5431474532688036  0.5474564883289874  0.5088902946741627   T   T   T
  0.5012248638118528  0.5041922015035986  0.4969007055224421   T   T   T
  0.4212005826455217  0.4964408725664484  0.5232198874777964   T   T   T
  0.4393583701280776  0.4752773775619013  0.4883833780458027   T   T   T
  0.4354501506418574  0.5198193794554622  0.4879543983239748   T   T   T
  0.4793525540483495  0.4793233858021583  0.5370504059361296   T   T   T
  0.4751201883983685  0.5238550619146317  0.5368517800828267   T   T   T
  0.4884694875585942  0.4338945267114228  0.5035041473474755   T   T   T
  0.5263098911289208  0.4235315377048711  0.4829637672099572   T   T   T
  0.5277365376506010  0.4442414194933885  0.5222666337433617   T   T   T
  0.5010212338103777  0.4734181772966929  0.4558122237591087   T   T   T
  0.5407034414759160  0.4821641062975917  0.4723433418217059   T   T   T
  0.5638133635255516  0.5296934313084987  0.5057771990534768   T   T   T
  0.5362889411033772  0.5488339207634502  0.5354013179594781   T   T   T
  0.5513875898834193  0.5722404276323224  0.5005131534133318   T   T   T
  0.5200400541466419  0.5364017521599549  0.4608254051060678   T   T   T
  0.4922710797253916  0.5549232179196519  0.4908016349591736   T   T   T
 
  0.00000000E+00  0.00000000E+00  0.00000000E+00
  0.00000000E+00  0.00000000E+00  0.00000000E+00
  0.00000000E+00  0.00000000E+00  0.00000000E+00
  0.00000000E+00  0.00000000E+00  0.00000000E+00
  0.00000000E+00  0.00000000E+00  0.00000000E+00
  0.00000000E+00  0.00000000E+00  0.00000000E+00
  0.00000000E+00  0.00000000E+00  0.00000000E+00
  0.00000000E+00  0.00000000E+00  0.00000000E+00
  0.00000000E+00  0.00000000E+00  0.00000000E+00
  0.00000000E+00  0.00000000E+00  0.00000000E+00
  0.00000000E+00  0.00000000E+00  0.00000000E+00
  0.00000000E+00  0.00000000E+00  0.00000000E+00
  0.00000000E+00  0.00000000E+00  0.00000000E+00
  0.00000000E+00  0.00000000E+00  0.00000000E+00
  0.00000000E+00  0.00000000E+00  0.00000000E+00
  0.00000000E+00  0.00000000E+00  0.00000000E+00
  0.00000000E+00  0.00000000E+00  0.00000000E+00
  0.00000000E+00  0.00000000E+00  0.00000000E+00
  0.00000000E+00  0.00000000E+00  0.00000000E+00
  0.00000000E+00  0.00000000E+00  0.00000000E+00
  0.00000000E+00  0.00000000E+00  0.00000000E+00
  0.00000000E+00  0.00000000E+00  0.00000000E+00
