C N O H                                 
   1.00000000000000     
    40.0000000000000000    0.0000000000000000    0.0000000000000000
     0.0000000000000000   40.0000000000000000    0.0000000000000000
     0.0000000000000000    0.0000000000000000   40.0000000000000000
   C    N    O    H 
     7     1     1     7
Selective dynamics
Direct
  0.5158978068245077  0.4685333645765516  0.5000000000000000   T   T   T
  0.5502864157440948  0.4745385943484679  0.5000000000000000   T   T   T
  0.5623309499235322  0.5073322866358483  0.5000000000000000   T   T   T
  0.5397253032810724  0.5341143698528164  0.5000000000000000   T   T   T
  0.5054208432973591  0.5282465646478486  0.5000000000000000   T   T   T
  0.4930213078990554  0.4952548972985501  0.5000000000000000   T   T   T
  0.4572909121750463  0.4875816602754433  0.5000000000000000   T   T   T
  0.4350393642967143  0.5108908726464091  0.5000000000000000   T   T   T
  0.4025272648309621  0.4975334782425761  0.5000009999999975   T   T   T
  0.3883299949143663  0.5173834339668916  0.5000009999999975   T   T   T
  0.4497579619881602  0.4611778882776328  0.5000000000000000   T   T   T
  0.4879393724947000  0.5491252866086667  0.5000000000000000   T   T   T
  0.5490324003862176  0.5597285064352939  0.5000000000000000   T   T   T
  0.5891630233788869  0.5120816532015168  0.4999990000000025   T   T   T
  0.5676855814418357  0.4535687968908619  0.4999990000000025   T   T   T
  0.5065524971234798  0.4429083460946180  0.5000000000000000   T   T   T
 
  0.00000000E+00  0.00000000E+00  0.00000000E+00
  0.00000000E+00  0.00000000E+00  0.00000000E+00
  0.00000000E+00  0.00000000E+00  0.00000000E+00
  0.00000000E+00  0.00000000E+00  0.00000000E+00
  0.00000000E+00  0.00000000E+00  0.00000000E+00
  0.00000000E+00  0.00000000E+00  0.00000000E+00
  0.00000000E+00  0.00000000E+00  0.00000000E+00
  0.00000000E+00  0.00000000E+00  0.00000000E+00
  0.00000000E+00  0.00000000E+00  0.00000000E+00
  0.00000000E+00  0.00000000E+00  0.00000000E+00
  0.00000000E+00  0.00000000E+00  0.00000000E+00
  0.00000000E+00  0.00000000E+00  0.00000000E+00
  0.00000000E+00  0.00000000E+00  0.00000000E+00
  0.00000000E+00  0.00000000E+00  0.00000000E+00
  0.00000000E+00  0.00000000E+00  0.00000000E+00
  0.00000000E+00  0.00000000E+00  0.00000000E+00
