C F N O H                               
   1.00000000000000     
    40.0000000000000000    0.0000000000000000    0.0000000000000000
     0.0000000000000000   40.0000000000000000    0.0000000000000000
     0.0000000000000000    0.0000000000000000   40.0000000000000000
   C    F    N    O    H 
     6     1     1     2     4
Selective dynamics
Direct
  0.4702652513464376  0.4695626234781719  0.4999970831016682   T   T   T
  0.5049170755914018  0.4694854159034539  0.4999983231161593   T   T   T
  0.5226877933633722  0.4999996955960668  0.5000000081177518   T   T   T
  0.5049175613303104  0.5305141224777211  0.5000018349927799   T   T   T
  0.4702653868132576  0.5304376723546194  0.5000026431992524   T   T   T
  0.4536594429632125  0.4999998991617147  0.4999997944975547   T   T   T
  0.4192345711348739  0.5000001808063175  0.4999994685548685   T   T   T
  0.5574509797761479  0.4999996835863101  0.4999999408149876   T   T   T
  0.5734438526101399  0.4717613725467842  0.4999988686062622   T   T   T
  0.5734440237855195  0.5282377775692979  0.5000006363881937   T   T   T
  0.4561737747940003  0.5535800154872708  0.5000041502918435   T   T   T
  0.5186837475105209  0.5537615085073095  0.5000045288449755   T   T   T
  0.5186833455629755  0.4462379452112207  0.4999962668765860   T   T   T
  0.4561731934178158  0.4464200873137326  0.4999954525971120   T   T   T
 
  0.00000000E+00  0.00000000E+00  0.00000000E+00
  0.00000000E+00  0.00000000E+00  0.00000000E+00
  0.00000000E+00  0.00000000E+00  0.00000000E+00
  0.00000000E+00  0.00000000E+00  0.00000000E+00
  0.00000000E+00  0.00000000E+00  0.00000000E+00
  0.00000000E+00  0.00000000E+00  0.00000000E+00
  0.00000000E+00  0.00000000E+00  0.00000000E+00
  0.00000000E+00  0.00000000E+00  0.00000000E+00
  0.00000000E+00  0.00000000E+00  0.00000000E+00
  0.00000000E+00  0.00000000E+00  0.00000000E+00
  0.00000000E+00  0.00000000E+00  0.00000000E+00
  0.00000000E+00  0.00000000E+00  0.00000000E+00
  0.00000000E+00  0.00000000E+00  0.00000000E+00
  0.00000000E+00  0.00000000E+00  0.00000000E+00
