!PBE0 def2-SV(p) Opt Freq d3 TightSCF SlowConv RIJCOSX defgrid2
 
%pal
nprocs 4
end
 
%scf
MaxIter 1500
end
 
%maxcore 3000
 

 
* xyz 0 1
C     1.7058865    1.0420805   -0.0080108 
C     0.5538912    1.7979150    0.0008623 
C    -0.6998878    1.2050092    0.0035227 
C    -0.7915380   -0.1825371   -0.0020178 
C     0.3679642   -0.9514747   -0.0123742 
C     1.6243224   -0.3543254   -0.0123896 
N     2.7654441   -1.1247462    0.0532171 
H     2.6688691   -2.0876194   -0.2250549 
H     3.6194010   -0.6820368   -0.2445834 
H     0.2720096   -2.0267273   -0.0167429 
O    -1.9632911   -0.8894550   -0.0043436 
C    -3.1793954   -0.1757946    0.0079798 
H    -3.9622994   -0.9324417    0.0085808 
H    -3.2830375    0.4543275   -0.8812130 
H    -3.2711030    0.4435390    0.9059022 
H    -1.5805282    1.8262268    0.0084854 
H     0.6234549    2.8762400    0.0027553 
H     2.6744821    1.5196989   -0.0094256
*
