C Cl O H                                
   1.00000000000000     
    40.0000000000000000    0.0000000000000000    0.0000000000000000
     0.0000000000000000   40.0000000000000000    0.0000000000000000
     0.0000000000000000    0.0000000000000000   40.0000000000000000
   C    Cl   O    H 
     8     1     1     7
Selective dynamics
Direct
  0.5096554823844670  0.5231922269479270  0.5000152076789774   T   T   T
  0.5444996099171817  0.5237742089534905  0.5000100118716304   T   T   T
  0.5619772195701671  0.4935330177745811  0.4999970308062274   T   T   T
  0.5450809407106050  0.4628715516677175  0.4999969970710509   T   T   T
  0.5103331123806356  0.4627335221510691  0.5000011787673415   T   T   T
  0.4920802047216668  0.4927772887009780  0.5000066029843779   T   T   T
  0.4546959507811579  0.4911881388027979  0.5000035522336077   T   T   T
  0.4351541511419441  0.5235689296691675  0.4999843812832907   T   T   T
  0.6052832541117752  0.4939415174166299  0.4999782847913252   T   T   T
  0.4401570391798941  0.4639656159760150  0.5000182734675533   T   T   T
  0.4412567876229900  0.5387523443006401  0.5220948259014122   T   T   T
  0.4412840550111454  0.5387489852070857  0.4778808353212796   T   T   T
  0.4083890298958934  0.5179190303119157  0.4999713223523514   T   T   T
  0.4966280697055936  0.4391727638992720  0.5000035725283354   T   T   T
  0.5591649678695561  0.4395653624829379  0.4999913885916811   T   T   T
  0.5580774994194044  0.5473711605927889  0.5000197685103487   T   T   T
  0.4962816255759392  0.5469263351450167  0.5000277658391994   T   T   T
 
  0.00000000E+00  0.00000000E+00  0.00000000E+00
  0.00000000E+00  0.00000000E+00  0.00000000E+00
  0.00000000E+00  0.00000000E+00  0.00000000E+00
  0.00000000E+00  0.00000000E+00  0.00000000E+00
  0.00000000E+00  0.00000000E+00  0.00000000E+00
  0.00000000E+00  0.00000000E+00  0.00000000E+00
  0.00000000E+00  0.00000000E+00  0.00000000E+00
  0.00000000E+00  0.00000000E+00  0.00000000E+00
  0.00000000E+00  0.00000000E+00  0.00000000E+00
  0.00000000E+00  0.00000000E+00  0.00000000E+00
  0.00000000E+00  0.00000000E+00  0.00000000E+00
  0.00000000E+00  0.00000000E+00  0.00000000E+00
  0.00000000E+00  0.00000000E+00  0.00000000E+00
  0.00000000E+00  0.00000000E+00  0.00000000E+00
  0.00000000E+00  0.00000000E+00  0.00000000E+00
  0.00000000E+00  0.00000000E+00  0.00000000E+00
  0.00000000E+00  0.00000000E+00  0.00000000E+00
