!TPSSh aug-cc-pVTZ d3 TightSCF SlowConv RIJCOSX defgrid2
 
%pal
nprocs 4
end
 
%scf
MaxIter 1500
end
 
%maxcore 3000
 
!CPCM
%cpcm smd true
SMDsolvent "MeCN"
surfacetype gepol_ses
rsolv 2.19
end 
 
* xyz 0 1
C           4.13966964128756      1.20735034805801      0.00018109983423
C           4.83985938717942      0.00012909944918     -0.00011080706815
C           4.13977283020272     -1.20715138721907     -0.00030540880609
C           2.74896974902717     -1.21166073629652     -0.00020947111922
C           2.03371707188302      0.00000535590610      0.00007936492405
C           2.74886648576486      1.21173557633403      0.00027305110837
H           2.19700573398250      2.15507580320245      0.00050096603306
C           0.60926575165477     -0.00003899905682      0.00017121398327
C          -0.60926677013399     -0.00011851011831      0.00032726130009
C          -2.03371710027454     -0.00005107798655      0.00019494163829
C          -2.74898416366441     -1.21170960248422      0.00036780306847
C          -4.13978643826222     -1.20718728138590      0.00021041667338
C          -4.83985863236214      0.00010214935927     -0.00011716793755
C          -4.13965447812715      1.20731478629068     -0.00028483680888
C          -2.74885097774675      1.21168640857502     -0.00012607465811
H          -2.19698244285642      2.15502223469334     -0.00025694123114
H          -4.68454348342066      2.15603211713716     -0.00054208004626
H          -5.93383287072922      0.00016036307699     -0.00023936958784
H          -4.68478251870500     -2.15584320000508      0.00034538941345
H          -2.19721645884462     -2.15510431633366      0.00062541194967
H           2.19719446528860     -2.15505107012925     -0.00036096765238
H           4.68475743011085     -2.15581340727935     -0.00053331434756
H           5.93383355030704      0.00017426906263     -0.00018342642694
H           4.68456993843861      2.15606107714988      0.00033824576380
*
