C H                                     
   1.00000000000000     
    40.0000000000000000    0.0000000000000000    0.0000000000000000
     0.0000000000000000   40.0000000000000000    0.0000000000000000
     0.0000000000000000    0.0000000000000000   40.0000000000000000
   C    H 
     8     6
Selective dynamics
Direct
  0.5344848137828677  0.4697599206624758  0.4999996868899572   T   T   T
  0.5520286232907807  0.5000002971966069  0.5000000116989369   T   T   T
  0.5344824601109934  0.5302389785257944  0.4999996875199670   T   T   T
  0.4996281198437771  0.5303695406128526  0.4999987381663118   T   T   T
  0.4817175408724452  0.4999981680008929  0.4999987927889293   T   T   T
  0.4996301458271191  0.4696266778875398  0.4999987380640789   T   T   T
  0.4461181342818819  0.4999996385540442  0.4999970151641762   T   T   T
  0.4157459207345369  0.5000090344829147  0.4999994028532768   T   T   T
  0.4859023998484062  0.4460875989008244  0.4999979506748744   T   T   T
  0.3889910548062048  0.5000006860283079  0.5000116912138992   T   T   T
  0.4858975846740421  0.5539064183939644  0.4999979396553229   T   T   T
  0.5480426367566196  0.5538985095057924  0.5000000922790946   T   T   T
  0.5792828414150648  0.5000016476129900  0.5000001608258486   T   T   T
  0.5480477237552535  0.4461018836350092  0.5000000922053331   T   T   T
 
  0.00000000E+00  0.00000000E+00  0.00000000E+00
  0.00000000E+00  0.00000000E+00  0.00000000E+00
  0.00000000E+00  0.00000000E+00  0.00000000E+00
  0.00000000E+00  0.00000000E+00  0.00000000E+00
  0.00000000E+00  0.00000000E+00  0.00000000E+00
  0.00000000E+00  0.00000000E+00  0.00000000E+00
  0.00000000E+00  0.00000000E+00  0.00000000E+00
  0.00000000E+00  0.00000000E+00  0.00000000E+00
  0.00000000E+00  0.00000000E+00  0.00000000E+00
  0.00000000E+00  0.00000000E+00  0.00000000E+00
  0.00000000E+00  0.00000000E+00  0.00000000E+00
  0.00000000E+00  0.00000000E+00  0.00000000E+00
  0.00000000E+00  0.00000000E+00  0.00000000E+00
  0.00000000E+00  0.00000000E+00  0.00000000E+00
