C N H                                   
   1.00000000000000     
    40.0000000000000000    0.0000000000000000    0.0000000000000000
     0.0000000000000000   40.0000000000000000    0.0000000000000000
     0.0000000000000000    0.0000000000000000   40.0000000000000000
   C    N    H 
    12     1    11
Selective dynamics
Direct
  0.4408309079881114  0.4693534200183035  0.5112905969254607   T   T   T
  0.4087489939438025  0.4829229050820849  0.5102176657864915   T   T   T
  0.4034294114894262  0.5152084675405855  0.4977663077485748   T   T   T
  0.4308246830493578  0.5334779723190145  0.4859674154800562   T   T   T
  0.4630361420673250  0.5200534052928134  0.4866054844801292   T   T   T
  0.4685651118313954  0.4877450241470005  0.4995672110829037   T   T   T
  0.5314348881686048  0.4877450241470005  0.5004317889170917   T   T   T
  0.5369638579326750  0.5200534052928134  0.5133935155198732   T   T   T
  0.5691753169506421  0.5334779723190145  0.5140325845199437   T   T   T
  0.5965705885105735  0.5152074675405880  0.5022336922514251   T   T   T
  0.5912510060561974  0.4829219050820803  0.4897833342135130   T   T   T
  0.5591690920118885  0.4693524200183061  0.4887104030745367   T   T   T
  0.5000000000000000  0.4726223375154286  0.5000000000000000   T   T   T
  0.5551894534366534  0.4442739456921433  0.4786926458332110   T   T   T
  0.6122793325427849  0.4681700687697780  0.4805829995140021   T   T   T
  0.6216380611790322  0.5259056139567488  0.5028336738258899   T   T   T
  0.5728388397052389  0.5585059808657976  0.5242705005823149   T   T   T
  0.5162015361425920  0.5344545443860612  0.5235555132236881   T   T   T
  0.5000000000000000  0.4472359663439053  0.5000000000000000   T   T   T
  0.4837984638574083  0.5344545443860612  0.4764434867763073   T   T   T
  0.4271611602947610  0.5585059808657976  0.4757294994176849   T   T   T
  0.3783619388209679  0.5259066139567463  0.4971673261741077   T   T   T
  0.3877206674572153  0.4681710687697825  0.5194180004859956   T   T   T
  0.4448105465633465  0.4442739456921433  0.5213073541667893   T   T   T
 
  0.00000000E+00  0.00000000E+00  0.00000000E+00
  0.00000000E+00  0.00000000E+00  0.00000000E+00
  0.00000000E+00  0.00000000E+00  0.00000000E+00
  0.00000000E+00  0.00000000E+00  0.00000000E+00
  0.00000000E+00  0.00000000E+00  0.00000000E+00
  0.00000000E+00  0.00000000E+00  0.00000000E+00
  0.00000000E+00  0.00000000E+00  0.00000000E+00
  0.00000000E+00  0.00000000E+00  0.00000000E+00
  0.00000000E+00  0.00000000E+00  0.00000000E+00
  0.00000000E+00  0.00000000E+00  0.00000000E+00
  0.00000000E+00  0.00000000E+00  0.00000000E+00
  0.00000000E+00  0.00000000E+00  0.00000000E+00
  0.00000000E+00  0.00000000E+00  0.00000000E+00
  0.00000000E+00  0.00000000E+00  0.00000000E+00
  0.00000000E+00  0.00000000E+00  0.00000000E+00
  0.00000000E+00  0.00000000E+00  0.00000000E+00
  0.00000000E+00  0.00000000E+00  0.00000000E+00
  0.00000000E+00  0.00000000E+00  0.00000000E+00
  0.00000000E+00  0.00000000E+00  0.00000000E+00
  0.00000000E+00  0.00000000E+00  0.00000000E+00
  0.00000000E+00  0.00000000E+00  0.00000000E+00
  0.00000000E+00  0.00000000E+00  0.00000000E+00
  0.00000000E+00  0.00000000E+00  0.00000000E+00
  0.00000000E+00  0.00000000E+00  0.00000000E+00
