C O H                                   
   1.00000000000000     
    40.0000000000000000    0.0000000000000000    0.0000000000000000
     0.0000000000000000   40.0000000000000000    0.0000000000000000
     0.0000000000000000    0.0000000000000000   40.0000000000000000
   C    O    H 
    13     1    10
Selective dynamics
Direct
  0.4382669324033018  0.5308604800803906  0.5036729190238265   T   T   T
  0.4072864176614708  0.5155523676132074  0.5009101171524942   T   T   T
  0.4682794757440465  0.5135181759092177  0.4962537748550769   T   T   T
  0.4648991629686696  0.4802164980531710  0.4846638720775230   T   T   T
  0.4338336673778545  0.4651790689380373  0.4815020425755089   T   T   T
  0.4045834555156135  0.4824704183178878  0.4899351519872211   T   T   T
  0.5001224285485195  0.5314190638718030  0.4982760947007108   T   T   T
  0.5318230736013611  0.5135681993065193  0.5022312578404667   T   T   T
  0.5619913791742350  0.5297837163086910  0.4930956933916062   T   T   T
  0.5928458832034619  0.5146220901051596  0.4975415112585065   T   T   T
  0.5952679656058208  0.4828781830181480  0.5119769987924818   T   T   T
  0.5658754604632950  0.4667817275881887  0.5221068459006160   T   T   T
  0.5349379369346671  0.4816551305407840  0.5172872030058236   T   T   T
  0.5002532818229048  0.5636268560383650  0.4965538734122285   T   T   T
  0.4322423314590123  0.4398084688087659  0.4719275330207259   T   T   T
  0.3803320949649339  0.4705886219016505  0.4876007013325660   T   T   T
  0.4401460541953867  0.5566335506532095  0.5118235279096991   T   T   T
  0.3848766590468313  0.5294962273279363  0.5073397843754190   T   T   T
  0.4869574821656931  0.4664713932824489  0.4770004546120147   T   T   T
  0.5127621976731235  0.4689688829092089  0.5263277340864693   T   T   T
  0.6194293965860569  0.4711378947076711  0.5156292967216387   T   T   T
  0.5672510623851763  0.4425595968427997  0.5343215164693099   T   T   T
  0.5603580624843730  0.5545681477677928  0.4822704938604128   T   T   T
  0.6153801380141716  0.5276372401089265  0.4897516016376683   T   T   T
 
  0.00000000E+00  0.00000000E+00  0.00000000E+00
  0.00000000E+00  0.00000000E+00  0.00000000E+00
  0.00000000E+00  0.00000000E+00  0.00000000E+00
  0.00000000E+00  0.00000000E+00  0.00000000E+00
  0.00000000E+00  0.00000000E+00  0.00000000E+00
  0.00000000E+00  0.00000000E+00  0.00000000E+00
  0.00000000E+00  0.00000000E+00  0.00000000E+00
  0.00000000E+00  0.00000000E+00  0.00000000E+00
  0.00000000E+00  0.00000000E+00  0.00000000E+00
  0.00000000E+00  0.00000000E+00  0.00000000E+00
  0.00000000E+00  0.00000000E+00  0.00000000E+00
  0.00000000E+00  0.00000000E+00  0.00000000E+00
  0.00000000E+00  0.00000000E+00  0.00000000E+00
  0.00000000E+00  0.00000000E+00  0.00000000E+00
  0.00000000E+00  0.00000000E+00  0.00000000E+00
  0.00000000E+00  0.00000000E+00  0.00000000E+00
  0.00000000E+00  0.00000000E+00  0.00000000E+00
  0.00000000E+00  0.00000000E+00  0.00000000E+00
  0.00000000E+00  0.00000000E+00  0.00000000E+00
  0.00000000E+00  0.00000000E+00  0.00000000E+00
  0.00000000E+00  0.00000000E+00  0.00000000E+00
  0.00000000E+00  0.00000000E+00  0.00000000E+00
  0.00000000E+00  0.00000000E+00  0.00000000E+00
  0.00000000E+00  0.00000000E+00  0.00000000E+00
