C O H                                   
   1.00000000000000     
    40.0000000000000000    0.0000000000000000    0.0000000000000000
     0.0000000000000000   40.0000000000000000    0.0000000000000000
     0.0000000000000000    0.0000000000000000   40.0000000000000000
   C    O    H 
    12     1    10
Selective dynamics
Direct
  0.5341634756856231  0.4868772177091804  0.5197982303057153   T   T   T
  0.5656258634976066  0.4717374439258526  0.5209907098672838   T   T   T
  0.5927713140123924  0.4855914481353435  0.5038046130061801   T   T   T
  0.5883097134799006  0.5149457728740819  0.4853033184959853   T   T   T
  0.5569414653919698  0.5302650499662791  0.4837288298539514   T   T   T
  0.5300458107653099  0.5160676697289509  0.5009415621111197   T   T   T
  0.4699539244450919  0.5160651438618763  0.4990603086604286   T   T   T
  0.4430559054233950  0.5302629759572399  0.5162699132067352   T   T   T
  0.4116883287731251  0.5149444130408262  0.5146927997750853   T   T   T
  0.4072279940954675  0.4855880807212768  0.4961931238461132   T   T   T
  0.4343769832986358  0.4717335707408443  0.4790103318485142   T   T   T
  0.4658376131157603  0.4868736916425453  0.4802061138659419   T   T   T
  0.4999994448246667  0.5334967304277423  0.5000016733125818   T   T   T
  0.4869297951389885  0.4761658742854761  0.4666723458596957   T   T   T
  0.4311080952707977  0.4489608434404480  0.4643434299510901   T   T   T
  0.3827679478631995  0.4735886994800860  0.4951202368273454   T   T   T
  0.3907002157053135  0.5259862438749398  0.5281686167664521   T   T   T
  0.4469882362312778  0.5530674788710773  0.5306831466553159   T   T   T
  0.5530071248720955  0.5530666635040110  0.4693125470115166   T   T   T
  0.6092956785220259  0.5259861031253411  0.4718247323453381   T   T   T
  0.6172326278605181  0.4735925652004662  0.5048764678281065   T   T   T
  0.5688962705894089  0.4489666411248499  0.5356599428096898   T   T   T
  0.5130741711374353  0.4761706783612125  0.5333360057898096   T   T   T
 
  0.00000000E+00  0.00000000E+00  0.00000000E+00
  0.00000000E+00  0.00000000E+00  0.00000000E+00
  0.00000000E+00  0.00000000E+00  0.00000000E+00
  0.00000000E+00  0.00000000E+00  0.00000000E+00
  0.00000000E+00  0.00000000E+00  0.00000000E+00
  0.00000000E+00  0.00000000E+00  0.00000000E+00
  0.00000000E+00  0.00000000E+00  0.00000000E+00
  0.00000000E+00  0.00000000E+00  0.00000000E+00
  0.00000000E+00  0.00000000E+00  0.00000000E+00
  0.00000000E+00  0.00000000E+00  0.00000000E+00
  0.00000000E+00  0.00000000E+00  0.00000000E+00
  0.00000000E+00  0.00000000E+00  0.00000000E+00
  0.00000000E+00  0.00000000E+00  0.00000000E+00
  0.00000000E+00  0.00000000E+00  0.00000000E+00
  0.00000000E+00  0.00000000E+00  0.00000000E+00
  0.00000000E+00  0.00000000E+00  0.00000000E+00
  0.00000000E+00  0.00000000E+00  0.00000000E+00
  0.00000000E+00  0.00000000E+00  0.00000000E+00
  0.00000000E+00  0.00000000E+00  0.00000000E+00
  0.00000000E+00  0.00000000E+00  0.00000000E+00
  0.00000000E+00  0.00000000E+00  0.00000000E+00
  0.00000000E+00  0.00000000E+00  0.00000000E+00
  0.00000000E+00  0.00000000E+00  0.00000000E+00
