C N O H                                 
   1.00000000000000     
    40.0000000000000000    0.0000000000000000    0.0000000000000000
     0.0000000000000000   40.0000000000000000    0.0000000000000000
     0.0000000000000000    0.0000000000000000   40.0000000000000000
   C    N    O    H 
     7     1     1     7
Selective dynamics
Direct
  0.5157890157584198  0.4687654560100076  0.5000000000000000   T   T   T
  0.5499947944650005  0.4747046246444678  0.5000000000000000   T   T   T
  0.5619564934380129  0.5072798891874567  0.5000000000000000   T   T   T
  0.5395115969026359  0.5339078288805786  0.5000000000000000   T   T   T
  0.5054106102875316  0.5280775578901639  0.5000000000000000   T   T   T
  0.4931223015379972  0.4953162211957300  0.5000000000000000   T   T   T
  0.4574218888772291  0.4876779578887360  0.5000000000000000   T   T   T
  0.4353421345670638  0.5106482041563817  0.5000000000000000   T   T   T
  0.4032888139452034  0.4976745759289711  0.5000009999999975   T   T   T
  0.3889691938928112  0.5171205604349270  0.5000009999999975   T   T   T
  0.4499237216252926  0.4614607131173823  0.5000000000000000   T   T   T
  0.4880617700541892  0.5488590494000538  0.5000000000000000   T   T   T
  0.5487814482731869  0.5593709133310313  0.5000000000000000   T   T   T
  0.5886335100077310  0.5119943610927142  0.4999990000000025   T   T   T
  0.5672847164955792  0.4538516470853673  0.4999990000000025   T   T   T
  0.5065089898720990  0.4432904397560306  0.5000000000000000   T   T   T
 
  0.00000000E+00  0.00000000E+00  0.00000000E+00
  0.00000000E+00  0.00000000E+00  0.00000000E+00
  0.00000000E+00  0.00000000E+00  0.00000000E+00
  0.00000000E+00  0.00000000E+00  0.00000000E+00
  0.00000000E+00  0.00000000E+00  0.00000000E+00
  0.00000000E+00  0.00000000E+00  0.00000000E+00
  0.00000000E+00  0.00000000E+00  0.00000000E+00
  0.00000000E+00  0.00000000E+00  0.00000000E+00
  0.00000000E+00  0.00000000E+00  0.00000000E+00
  0.00000000E+00  0.00000000E+00  0.00000000E+00
  0.00000000E+00  0.00000000E+00  0.00000000E+00
  0.00000000E+00  0.00000000E+00  0.00000000E+00
  0.00000000E+00  0.00000000E+00  0.00000000E+00
  0.00000000E+00  0.00000000E+00  0.00000000E+00
  0.00000000E+00  0.00000000E+00  0.00000000E+00
  0.00000000E+00  0.00000000E+00  0.00000000E+00
