C N O H                                 
   1.00000000000000     
    40.0000000000000000    0.0000000000000000    0.0000000000000000
     0.0000000000000000   40.0000000000000000    0.0000000000000000
     0.0000000000000000    0.0000000000000000   40.0000000000000000
   C    N    O    H 
    10     1     1    17
Selective dynamics
Direct
  0.4706106875599834  0.4689612630741279  0.5003633453757140   T   T   T
  0.4905145119227212  0.4999346778738887  0.5081904639168239   T   T   T
  0.4748020718747321  0.5311489635740309  0.5085526228441810   T   T   T
  0.4393510934234791  0.5363723943039175  0.4993826891021392   T   T   T
  0.4224364584324188  0.5057781453580902  0.4842291619825131   T   T   T
  0.4329392686767770  0.4746135664462811  0.5033200531271679   T   T   T
  0.5460360361731073  0.5243777420302527  0.5229915184495645   T   T   T
  0.5701899554542514  0.5296413656309235  0.4936871452297964   T   T   T
  0.5665393984570524  0.4731165759039474  0.4793342476709865   T   T   T
  0.5422716741554614  0.4662175761832951  0.5083724902756566   T   T   T
  0.5233654096223825  0.4968555977218148  0.5147889343075589   T   T   T
  0.5882460128321464  0.4998877984358348  0.4872211525014897   T   T   T
  0.4261804983970108  0.4771880040705124  0.5297281913182875   T   T   T
  0.4200807782712391  0.4524794044449557  0.4939182097433873   T   T   T
  0.4296053511565079  0.5033266478357463  0.4579231101340299   T   T   T
  0.3953619656846961  0.5089513263480518  0.4848671652446049   T   T   T
  0.4261719226464756  0.5443531256714031  0.5222284323971114   T   T   T
  0.4378509017152864  0.5582001975189270  0.4828759692892015   T   T   T
  0.4886482092533384  0.5532409768686617  0.5156940221105497   T   T   T
  0.5325335340114734  0.5471714029658110  0.5286861514541357   T   T   T
  0.5883672420128122  0.5488248355434271  0.5002079781862644   T   T   T
  0.5561623528741255  0.5375100041052312  0.4714268780858777   T   T   T
  0.5522195080604457  0.4786706163610600  0.4565716519099196   T   T   T
  0.5564800973435164  0.4601250828282692  0.5308679404387489   T   T   T
  0.5258120185579769  0.4456013409939197  0.5021245793543957   T   T   T
  0.5820339403644587  0.4511275595366913  0.4751614553081914   T   T   T
  0.5601596122160016  0.5167880220117694  0.5450848840374153   T   T   T
  0.4767501074732963  0.4606343145561634  0.4749582755099257   T   T   T
  0.4782813813768212  0.4489024718030066  0.5172442806943971   T   T   T
 
  0.00000000E+00  0.00000000E+00  0.00000000E+00
  0.00000000E+00  0.00000000E+00  0.00000000E+00
  0.00000000E+00  0.00000000E+00  0.00000000E+00
  0.00000000E+00  0.00000000E+00  0.00000000E+00
  0.00000000E+00  0.00000000E+00  0.00000000E+00
  0.00000000E+00  0.00000000E+00  0.00000000E+00
  0.00000000E+00  0.00000000E+00  0.00000000E+00
  0.00000000E+00  0.00000000E+00  0.00000000E+00
  0.00000000E+00  0.00000000E+00  0.00000000E+00
  0.00000000E+00  0.00000000E+00  0.00000000E+00
  0.00000000E+00  0.00000000E+00  0.00000000E+00
  0.00000000E+00  0.00000000E+00  0.00000000E+00
  0.00000000E+00  0.00000000E+00  0.00000000E+00
  0.00000000E+00  0.00000000E+00  0.00000000E+00
  0.00000000E+00  0.00000000E+00  0.00000000E+00
  0.00000000E+00  0.00000000E+00  0.00000000E+00
  0.00000000E+00  0.00000000E+00  0.00000000E+00
  0.00000000E+00  0.00000000E+00  0.00000000E+00
  0.00000000E+00  0.00000000E+00  0.00000000E+00
  0.00000000E+00  0.00000000E+00  0.00000000E+00
  0.00000000E+00  0.00000000E+00  0.00000000E+00
  0.00000000E+00  0.00000000E+00  0.00000000E+00
  0.00000000E+00  0.00000000E+00  0.00000000E+00
  0.00000000E+00  0.00000000E+00  0.00000000E+00
  0.00000000E+00  0.00000000E+00  0.00000000E+00
  0.00000000E+00  0.00000000E+00  0.00000000E+00
  0.00000000E+00  0.00000000E+00  0.00000000E+00
  0.00000000E+00  0.00000000E+00  0.00000000E+00
  0.00000000E+00  0.00000000E+00  0.00000000E+00
