C O H                                   
   1.00000000000000     
    40.0000000000000000    0.0000000000000000    0.0000000000000000
     0.0000000000000000   40.0000000000000000    0.0000000000000000
     0.0000000000000000    0.0000000000000000   40.0000000000000000
   C    O    H 
    14     1    12
Selective dynamics
Direct
  0.4565891700677746  0.5347311857745949  0.4933180155069267   T   T   T
  0.4372119947471597  0.5050926725244940  0.4988599997591012   T   T   T
  0.4558969463069298  0.4750237605537238  0.5043198507308859   T   T   T
  0.4904857041837157  0.4746798720792114  0.5039214034387669   T   T   T
  0.5096799565220014  0.5043001988200198  0.4988898975879563   T   T   T
  0.4911164479868642  0.5343288463555377  0.4937631899150963   T   T   T
  0.5461554289313054  0.5039789168455192  0.4989202911586890   T   T   T
  0.5646503031929517  0.4752363695671461  0.4891624849482787   T   T   T
  0.5994878501147847  0.4751277154403627  0.4890461069105388   T   T   T
  0.6175922162569170  0.5035569750146801  0.4988362887732319   T   T   T
  0.5998606336727749  0.5321963156614952  0.5086847182571296   T   T   T
  0.5650296879961949  0.5324820330469918  0.5086456068193228   T   T   T
  0.4012130871231815  0.5063235958286065  0.4990185670601211   T   T   T
  0.3818150122075645  0.4743839270456329  0.5063652243889347   T   T   T
  0.3848308055388692  0.5332973879526731  0.4935665985389297   T   T   T
  0.5045849432193129  0.5576249960929194  0.4890036625170611   T   T   T
  0.5519684657459893  0.5548832403028807  0.5171632205474710   T   T   T
  0.6134032235734244  0.5544642586186255  0.5168391425101403   T   T   T
  0.6448624160573765  0.5033897587238776  0.4987938520219726   T   T   T
  0.6127534369178139  0.4527125261946078  0.4808198750431615   T   T   T
  0.5512976903957632  0.4529957951852021  0.4806570553231491   T   T   T
  0.5033847578894819  0.4510854838785612  0.5087291510436827   T   T   T
  0.4427519602559156  0.4516216370959862  0.5092352218754576   T   T   T
  0.3549464242712403  0.4798063382462229  0.5053765336123927   T   T   T
  0.3873778577335296  0.4543421779510041  0.4882645250678239   T   T   T
  0.3877766159360313  0.4642871521911422  0.5313372439653670   T   T   T
  0.4432769631551670  0.5580478630082639  0.4884632726784012   T   T   T
 
  0.00000000E+00  0.00000000E+00  0.00000000E+00
  0.00000000E+00  0.00000000E+00  0.00000000E+00
  0.00000000E+00  0.00000000E+00  0.00000000E+00
  0.00000000E+00  0.00000000E+00  0.00000000E+00
  0.00000000E+00  0.00000000E+00  0.00000000E+00
  0.00000000E+00  0.00000000E+00  0.00000000E+00
  0.00000000E+00  0.00000000E+00  0.00000000E+00
  0.00000000E+00  0.00000000E+00  0.00000000E+00
  0.00000000E+00  0.00000000E+00  0.00000000E+00
  0.00000000E+00  0.00000000E+00  0.00000000E+00
  0.00000000E+00  0.00000000E+00  0.00000000E+00
  0.00000000E+00  0.00000000E+00  0.00000000E+00
  0.00000000E+00  0.00000000E+00  0.00000000E+00
  0.00000000E+00  0.00000000E+00  0.00000000E+00
  0.00000000E+00  0.00000000E+00  0.00000000E+00
  0.00000000E+00  0.00000000E+00  0.00000000E+00
  0.00000000E+00  0.00000000E+00  0.00000000E+00
  0.00000000E+00  0.00000000E+00  0.00000000E+00
  0.00000000E+00  0.00000000E+00  0.00000000E+00
  0.00000000E+00  0.00000000E+00  0.00000000E+00
  0.00000000E+00  0.00000000E+00  0.00000000E+00
  0.00000000E+00  0.00000000E+00  0.00000000E+00
  0.00000000E+00  0.00000000E+00  0.00000000E+00
  0.00000000E+00  0.00000000E+00  0.00000000E+00
  0.00000000E+00  0.00000000E+00  0.00000000E+00
  0.00000000E+00  0.00000000E+00  0.00000000E+00
  0.00000000E+00  0.00000000E+00  0.00000000E+00
