!TPSSh opt aug-cc-pVTZ d3 TightSCF SlowConv RIJCOSX defgrid2

%pal
nprocs 8
end

%scf
MaxIter 1500
end

%maxcore 3500

!CPCM
%cpcm smd true
SMDsolvent "MeCN"
surfacetype gepol_ses
rsolv 2.19
end 

* xyz 0 1
C           0.89625463995169     -1.41558669005642      0.00000212581931
C           2.11505403593339     -0.74430991173074     -0.00000149555587
C           2.17542044953981      0.66118914619392      0.00000118790347
C           1.02073349490689      1.43411488081899      0.00000740816991
C          -0.21978579987357      0.78024255664200      0.00000882693723
C          -0.24734548849214     -0.62587635066739      0.00000530658827
O          -1.52601546021974     -1.07032389872869      0.00001342203642
C          -2.31826979056253      0.02952741578344      0.00002075604744
C          -1.60215379632981      1.18293934552638      0.00000260268759
H          -2.00251324968155      2.19537072670951     -0.00000431996804
H          -3.38877681335679     -0.16931307117016      0.00002936397660
H           1.07767380530056      2.52621447644394      0.00000712336235
H           3.15304280126425      1.15182904763925     -0.00000361572869
H           3.04441141911605     -1.32116718166862     -0.00000606251848
H           0.83131985250349     -2.50587419173540      0.00000217024247
*
