C H                                     
   1.00000000000000     
    40.0000000000000000    0.0000000000000000    0.0000000000000000
     0.0000000000000000   40.0000000000000000    0.0000000000000000
     0.0000000000000000    0.0000000000000000   40.0000000000000000
   C    H 
     7     8
Selective dynamics
Direct
  0.5523264016586563  0.4999977951250243  0.5001437938688839   T   T   T
  0.5347265859621581  0.4699612344534692  0.4999611408808151   T   T   T
  0.4999052254760342  0.4700199692975641  0.4996636045498890   T   T   T
  0.4819222894124944  0.5000027223099112  0.4995980027921515   T   T   T
  0.4443326072426930  0.5000019026316233  0.5001588000948001   T   T   T
  0.4999091732422770  0.5299823902942551  0.4996674387536668   T   T   T
  0.5347310286683487  0.5300367983981283  0.4999653977745824   T   T   T
  0.4342297924331129  0.5222155233225404  0.4879415491449449   T   T   T
  0.4342279391851640  0.4778622228227292  0.4878087631108149   T   T   T
  0.4350510044067533  0.4999230047033351  0.5259154200227514   T   T   T
  0.5481437934396559  0.5536106997028699  0.4999814084452204   T   T   T
  0.4864648729614504  0.5535767584924992  0.4994483889662423   T   T   T
  0.4864593655520566  0.4464269915282668  0.4994422804498123   T   T   T
  0.5481376944273637  0.4463861797252514  0.4999748448108172   T   T   T
  0.5794342259317692  0.4999968071925583  0.5003271663345987   T   T   T
 
  0.00000000E+00  0.00000000E+00  0.00000000E+00
  0.00000000E+00  0.00000000E+00  0.00000000E+00
  0.00000000E+00  0.00000000E+00  0.00000000E+00
  0.00000000E+00  0.00000000E+00  0.00000000E+00
  0.00000000E+00  0.00000000E+00  0.00000000E+00
  0.00000000E+00  0.00000000E+00  0.00000000E+00
  0.00000000E+00  0.00000000E+00  0.00000000E+00
  0.00000000E+00  0.00000000E+00  0.00000000E+00
  0.00000000E+00  0.00000000E+00  0.00000000E+00
  0.00000000E+00  0.00000000E+00  0.00000000E+00
  0.00000000E+00  0.00000000E+00  0.00000000E+00
  0.00000000E+00  0.00000000E+00  0.00000000E+00
  0.00000000E+00  0.00000000E+00  0.00000000E+00
  0.00000000E+00  0.00000000E+00  0.00000000E+00
  0.00000000E+00  0.00000000E+00  0.00000000E+00
