C O H                                   
   1.00000000000000     
    40.0000000000000000    0.0000000000000000    0.0000000000000000
     0.0000000000000000   40.0000000000000000    0.0000000000000000
     0.0000000000000000    0.0000000000000000   40.0000000000000000
   C    O    H 
     9     1    10
Selective dynamics
Direct
  0.5067147198365489  0.5242392436592093  0.4997665083818051   T   T   T
  0.4718293068776951  0.5245455666983445  0.4996456426751967   T   T   T
  0.4533969466412823  0.4946629099989674  0.4996905166090079   T   T   T
  0.4711229116797498  0.4642630741621158  0.4997232869062710   T   T   T
  0.5058651017467691  0.4637952755729493  0.4998726235356989   T   T   T
  0.5243153409868517  0.4937717478369117  0.4999230851148862   T   T   T
  0.5615746366432749  0.4920258433898929  0.5000299254945556   T   T   T
  0.5814033942513470  0.5241662688964358  0.5000749929624685   T   T   T
  0.4158102258248317  0.4949450029017679  0.5002424938064935   T   T   T
  0.5761218232679567  0.4646426484641117  0.5000911817669998   T   T   T
  0.6081605617930864  0.5183508450148233  0.5002031986135131   T   T   T
  0.5752150217982922  0.5393944290408584  0.5221269492093721   T   T   T
  0.5754144040416157  0.5393208931035417  0.4779162652724210   T   T   T
  0.5193439389734767  0.4400995777945016  0.4998501492046098   T   T   T
  0.4572885801653310  0.4407241616766180  0.4995751253295705   T   T   T
  0.4065902482891068  0.4917627014373314  0.5260068438299264   T   T   T
  0.4057093209247785  0.5186212972580503  0.4907250918616088   T   T   T
  0.4054541599096408  0.4742789262573014  0.4854071247216749   T   T   T
  0.4585718109642832  0.5484069366843130  0.4994430437924127   T   T   T
  0.5200975453840878  0.5479836501519516  0.4996879509115018   T   T   T
 
  0.00000000E+00  0.00000000E+00  0.00000000E+00
  0.00000000E+00  0.00000000E+00  0.00000000E+00
  0.00000000E+00  0.00000000E+00  0.00000000E+00
  0.00000000E+00  0.00000000E+00  0.00000000E+00
  0.00000000E+00  0.00000000E+00  0.00000000E+00
  0.00000000E+00  0.00000000E+00  0.00000000E+00
  0.00000000E+00  0.00000000E+00  0.00000000E+00
  0.00000000E+00  0.00000000E+00  0.00000000E+00
  0.00000000E+00  0.00000000E+00  0.00000000E+00
  0.00000000E+00  0.00000000E+00  0.00000000E+00
  0.00000000E+00  0.00000000E+00  0.00000000E+00
  0.00000000E+00  0.00000000E+00  0.00000000E+00
  0.00000000E+00  0.00000000E+00  0.00000000E+00
  0.00000000E+00  0.00000000E+00  0.00000000E+00
  0.00000000E+00  0.00000000E+00  0.00000000E+00
  0.00000000E+00  0.00000000E+00  0.00000000E+00
  0.00000000E+00  0.00000000E+00  0.00000000E+00
  0.00000000E+00  0.00000000E+00  0.00000000E+00
  0.00000000E+00  0.00000000E+00  0.00000000E+00
  0.00000000E+00  0.00000000E+00  0.00000000E+00
