C Cl O H                                
   1.00000000000000     
    40.0000000000000000    0.0000000000000000    0.0000000000000000
     0.0000000000000000   40.0000000000000000    0.0000000000000000
     0.0000000000000000    0.0000000000000000   40.0000000000000000
   C    Cl   O    H 
     7     1     1     5
Selective dynamics
Direct
  0.4971765252179488  0.4691057839963204  0.4999860445354073   T   T   T
  0.4633721534185171  0.4763782056017620  0.4999813966547638   T   T   T
  0.4527077987228362  0.5094909979985722  0.4999949553340161   T   T   T
  0.4758928277876240  0.5353619555844266  0.5000105851680929   T   T   T
  0.5098068964140684  0.5282857829234124  0.5000131475140929   T   T   T
  0.5205799802876266  0.4951092779767538  0.5000020443877836   T   T   T
  0.5560467463267466  0.4854399983289162  0.5000038918924412   T   T   T
  0.5851490525620254  0.5189855938963263  0.5000140731563686   T   T   T
  0.5666927793613767  0.4574411057038197  0.4999989355284703   T   T   T
  0.5278036640345108  0.5484627935653599  0.5000247977189499   T   T   T
  0.4675392323462279  0.5611162080279041  0.5000219793993405   T   T   T
  0.4262051540366033  0.5151177598003106  0.4999960227977148   T   T   T
  0.4452555048269933  0.4562561830827633  0.4999728092972405   T   T   T
  0.5057706846568837  0.4434493535133500  0.4999793166153108   T   T   T
 
  0.00000000E+00  0.00000000E+00  0.00000000E+00
  0.00000000E+00  0.00000000E+00  0.00000000E+00
  0.00000000E+00  0.00000000E+00  0.00000000E+00
  0.00000000E+00  0.00000000E+00  0.00000000E+00
  0.00000000E+00  0.00000000E+00  0.00000000E+00
  0.00000000E+00  0.00000000E+00  0.00000000E+00
  0.00000000E+00  0.00000000E+00  0.00000000E+00
  0.00000000E+00  0.00000000E+00  0.00000000E+00
  0.00000000E+00  0.00000000E+00  0.00000000E+00
  0.00000000E+00  0.00000000E+00  0.00000000E+00
  0.00000000E+00  0.00000000E+00  0.00000000E+00
  0.00000000E+00  0.00000000E+00  0.00000000E+00
  0.00000000E+00  0.00000000E+00  0.00000000E+00
  0.00000000E+00  0.00000000E+00  0.00000000E+00
