C O H                                   
   1.00000000000000     
    40.0000000000000000    0.0000000000000000    0.0000000000000000
     0.0000000000000000   40.0000000000000000    0.0000000000000000
     0.0000000000000000    0.0000000000000000   40.0000000000000000
   C    O    H 
     8     1     8
Selective dynamics
Direct
  0.5103731819635220  0.4765804732409458  0.4999909929239540   T   T   T
  0.5452754329423914  0.4758799848516002  0.4999983663071893   T   T   T
  0.5633509927887189  0.5057763927012678  0.5000046009546718   T   T   T
  0.5464514470048372  0.5364291615108290  0.5000028479856673   T   T   T
  0.5116676972826704  0.5371274294443913  0.4999955597846675   T   T   T
  0.4931725499217270  0.5072321581689903  0.4999914547233260   T   T   T
  0.4557747227906571  0.5092900164172091  0.4999955298342023   T   T   T
  0.4357684749017364  0.4771970670177461  0.5000032056609770   T   T   T
  0.4415178388390910  0.5366635657781877  0.4999961359295241   T   T   T
  0.4090782301208495  0.4832192160755148  0.5000052867394775   T   T   T
  0.4416746228718438  0.4619283648863877  0.5221038138251087   T   T   T
  0.4416700464882655  0.4619182998315197  0.4779099998336133   T   T   T
  0.4980457031598782  0.5607359453900225  0.4999951077596069   T   T   T
  0.5605287603137825  0.5597743100391773  0.5000074506949871   T   T   T
  0.5906160387070379  0.5052259440464870  0.5000129405902265   T   T   T
  0.5583940809531183  0.4519806240684979  0.4999992848502244   T   T   T
  0.4966411789498774  0.4530410465312544  0.4999864216025787   T   T   T
 
  0.00000000E+00  0.00000000E+00  0.00000000E+00
  0.00000000E+00  0.00000000E+00  0.00000000E+00
  0.00000000E+00  0.00000000E+00  0.00000000E+00
  0.00000000E+00  0.00000000E+00  0.00000000E+00
  0.00000000E+00  0.00000000E+00  0.00000000E+00
  0.00000000E+00  0.00000000E+00  0.00000000E+00
  0.00000000E+00  0.00000000E+00  0.00000000E+00
  0.00000000E+00  0.00000000E+00  0.00000000E+00
  0.00000000E+00  0.00000000E+00  0.00000000E+00
  0.00000000E+00  0.00000000E+00  0.00000000E+00
  0.00000000E+00  0.00000000E+00  0.00000000E+00
  0.00000000E+00  0.00000000E+00  0.00000000E+00
  0.00000000E+00  0.00000000E+00  0.00000000E+00
  0.00000000E+00  0.00000000E+00  0.00000000E+00
  0.00000000E+00  0.00000000E+00  0.00000000E+00
  0.00000000E+00  0.00000000E+00  0.00000000E+00
  0.00000000E+00  0.00000000E+00  0.00000000E+00
