C H                                     
   1.00000000000000     
    40.0000000000000000    0.0000000000000000    0.0000000000000000
     0.0000000000000000   40.0000000000000000    0.0000000000000000
     0.0000000000000000    0.0000000000000000   40.0000000000000000
   C    H 
    10     8
Selective dynamics
Direct
  0.5612792049929070  0.4825691962767706  0.5000000000000000   T   T   T
  0.5612792049929070  0.5174288037232344  0.5000000000000000   T   T   T
  0.5308932179680355  0.5351129001996995  0.5000000000000000   T   T   T
  0.5000000000000000  0.5178981486593557  0.5000000000000000   T   T   T
  0.4691077820319691  0.5351139001996970  0.5000000000000000   T   T   T
  0.4387207950070930  0.5174308037232294  0.5000000000000000   T   T   T
  0.4387207950070930  0.4825711962767656  0.5000000000000000   T   T   T
  0.4691067820319645  0.4648870998003005  0.5000000000000000   T   T   T
  0.5000000000000000  0.4821018513406443  0.5000000000000000   T   T   T
  0.5308922179680309  0.4648860998003030  0.5000000000000000   T   T   T
  0.5309667122366690  0.4376161088092800  0.5000000000000000   T   T   T
  0.4690312877633289  0.4376171088092846  0.5000000000000000   T   T   T
  0.4151924512221328  0.4688751113739471  0.5000000000000000   T   T   T
  0.4151934512221302  0.5311278886260524  0.5000000000000000   T   T   T
  0.4690332877633310  0.5623838911907200  0.5000000000000000   T   T   T
  0.5309687122366711  0.5623828911907154  0.5000000000000000   T   T   T
  0.5848075487778672  0.5311248886260529  0.5000000000000000   T   T   T
  0.5848065487778698  0.4688731113739522  0.5000000000000000   T   T   T
 
  0.00000000E+00  0.00000000E+00  0.00000000E+00
  0.00000000E+00  0.00000000E+00  0.00000000E+00
  0.00000000E+00  0.00000000E+00  0.00000000E+00
  0.00000000E+00  0.00000000E+00  0.00000000E+00
  0.00000000E+00  0.00000000E+00  0.00000000E+00
  0.00000000E+00  0.00000000E+00  0.00000000E+00
  0.00000000E+00  0.00000000E+00  0.00000000E+00
  0.00000000E+00  0.00000000E+00  0.00000000E+00
  0.00000000E+00  0.00000000E+00  0.00000000E+00
  0.00000000E+00  0.00000000E+00  0.00000000E+00
  0.00000000E+00  0.00000000E+00  0.00000000E+00
  0.00000000E+00  0.00000000E+00  0.00000000E+00
  0.00000000E+00  0.00000000E+00  0.00000000E+00
  0.00000000E+00  0.00000000E+00  0.00000000E+00
  0.00000000E+00  0.00000000E+00  0.00000000E+00
  0.00000000E+00  0.00000000E+00  0.00000000E+00
  0.00000000E+00  0.00000000E+00  0.00000000E+00
  0.00000000E+00  0.00000000E+00  0.00000000E+00
