!B3LYP aug-cc-pVTZ d3 TightSCF SlowConv RIJCOSX defgrid2
 
%pal
nprocs 4
end
 
%scf
MaxIter 1500
end
 
%maxcore 3000
 
!CPCM
%cpcm smd true
SMDsolvent "MeCN"
surfacetype gepol_ses
rsolv 2.19
end 
 
* xyz 0 2
S          -0.00010950333410      1.33232152061846      0.00000284685572
C          -1.36367602339461      0.23464932550616     -0.00507122495906
C          -2.63111207479134      0.80918677441119     -0.00931514148930
C          -3.79749598688692      0.01748913706240     -0.01353133573099
C          -3.62690722369362     -1.39108123583356     -0.01295952620618
C          -2.36711161265690     -1.94934818919206     -0.00874256384629
H          -2.23684953206305     -3.03459019141420     -0.00838133626109
C          -1.17821016281749     -1.17668732648083     -0.00472311773149
N          -0.00002243259599     -1.83446497066754     -0.00098097198001
C           1.17812817196274     -1.17662234567149      0.00321348810966
C           2.36706725678156     -1.94922452722425      0.00667750909652
C           3.62683749655594     -1.39090083721577      0.01126100122058
C           3.79735129127031      0.01767608816689      0.01293153169759
C           2.63092897415049      0.80931688655999      0.00908647542932
C           1.36351983422924      0.23472394637557      0.00444992884257
H           2.70292817680075      1.89826895685548      0.00952338683142
N           5.04756390584320      0.58778935524973      0.01788863149424
C           5.18172091093512      2.01927291145544      0.01839451021747
H           4.72362917020845      2.48089047963546     -0.87882697554764
H           4.71362444681400      2.48052031071610      0.91057955441826
H           6.24845927057729      2.28645848294775      0.02468300648574
C           6.21890311032700     -0.24765571266402      0.01987377959494
H           7.11746405207368      0.38638280457377      0.02575541170059
H           6.26272829635460     -0.90187803580692      0.91268866293187
H           6.27030724212294     -0.89602611228501     -0.87693708029874
H           4.49368813972706     -2.05282067647445      0.01344982462292
H           2.23685254993858     -3.03447155031151      0.00547512817034
H          -4.49372906017109     -2.05303540820711     -0.01582821380380
N          -5.04773346330895      0.58755010330840     -0.01787016769593
C          -6.21904670194275     -0.24792774805618     -0.02103570915344
H          -6.26948350136630     -0.89843815146211      0.87422819476414
H          -6.26381702737160     -0.90001046584191     -0.91541895496807
H          -7.11762903933965      0.38609970182385     -0.02430714598305
C          -5.18193217827922      2.01902912759794     -0.01996728409317
H          -4.72352139465997      2.48160383072144      0.87657566790498
H          -4.71418178558910      2.47935235497991     -0.91283316827598
H          -6.24867837130277      2.28618639267493     -0.02606269937327
H          -2.70315182110753      1.89814199356804     -0.00903802299134
*
