C O S H                                 
   1.00000000000000     
    40.0000000000000000    0.0000000000000000    0.0000000000000000
     0.0000000000000000   40.0000000000000000    0.0000000000000000
     0.0000000000000000    0.0000000000000000   40.0000000000000000
   C    O    S    H 
    14     2     2    14
Selective dynamics
Direct
  0.5477821019453305  0.5345518356530244  0.5070591126501115   T   T   T
  0.5421036132651519  0.5087296614726030  0.4842986169571542   T   T   T
  0.5669977845769358  0.4856376983131153  0.4776438516919622   T   T   T
  0.5978966307701579  0.4877071919910587  0.4938220479550890   T   T   T
  0.6036970791268282  0.5134265954721356  0.5166804782617147   T   T   T
  0.5786654922355000  0.5367801144959340  0.5230224026881094   T   T   T
  0.6525454865976156  0.4649565884612596  0.5014034804128997   T   T   T
  0.4522208600077463  0.5345621744485418  0.4929565609288105   T   T   T
  0.4578963407315084  0.5087312362054340  0.5157020444518408   T   T   T
  0.4330018538614894  0.4856359141374594  0.5223487552796142   T   T   T
  0.4021008811961548  0.4877158162603399  0.5061735434242531   T   T   T
  0.3963012304724091  0.5134448133903460  0.4833287332692156   T   T   T
  0.4213366214332279  0.5368023592988549  0.4769929206399146   T   T   T
  0.3474545439613194  0.4649693857954545  0.4985828574387557   T   T   T
  0.6206094869927556  0.4636822210273056  0.4855807266838588   T   T   T
  0.3793887334245949  0.4636872818773274  0.5144070741108897   T   T   T
  0.5171945701821496  0.5647557281973808  0.5184222869999202   T   T   T
  0.4828102585130821  0.5647651733006362  0.4815989212905125   T   T   T
  0.5834955077053151  0.5568761909482324  0.5405878426570643   T   T   T
  0.6274348692410003  0.5157816242413256  0.5294233462751501   T   T   T
  0.6501994530931572  0.4623881209451118  0.5285359315910537   T   T   T
  0.6655550905743379  0.4882691928339018  0.4954503668205132   T   T   T
  0.6665236398324841  0.4438921186845712  0.4914181527879746   T   T   T
  0.5628880011597032  0.4655658540312588  0.4599225159474238   T   T   T
  0.5182579941176837  0.5069175424277198  0.4715616298415952   T   T   T
  0.4165059763096694  0.5569015614782342  0.4594342410065139   T   T   T
  0.3725646891346713  0.5158058570303183  0.4705846088301311   T   T   T
  0.3498011021805980  0.4624103490500386  0.4714491859619876   T   T   T
  0.3334737026544172  0.4439017578654352  0.5085605017393907   T   T   T
  0.3344453398834282  0.4882796469795099  0.5045424953166794   T   T   T
  0.4371102210301099  0.4655571708996465  0.5400631591815417   T   T   T
  0.4817418437894644  0.5069112227864629  0.5284386069083840   T   T   T
 
  0.00000000E+00  0.00000000E+00  0.00000000E+00
  0.00000000E+00  0.00000000E+00  0.00000000E+00
  0.00000000E+00  0.00000000E+00  0.00000000E+00
  0.00000000E+00  0.00000000E+00  0.00000000E+00
  0.00000000E+00  0.00000000E+00  0.00000000E+00
  0.00000000E+00  0.00000000E+00  0.00000000E+00
  0.00000000E+00  0.00000000E+00  0.00000000E+00
  0.00000000E+00  0.00000000E+00  0.00000000E+00
  0.00000000E+00  0.00000000E+00  0.00000000E+00
  0.00000000E+00  0.00000000E+00  0.00000000E+00
  0.00000000E+00  0.00000000E+00  0.00000000E+00
  0.00000000E+00  0.00000000E+00  0.00000000E+00
  0.00000000E+00  0.00000000E+00  0.00000000E+00
  0.00000000E+00  0.00000000E+00  0.00000000E+00
  0.00000000E+00  0.00000000E+00  0.00000000E+00
  0.00000000E+00  0.00000000E+00  0.00000000E+00
  0.00000000E+00  0.00000000E+00  0.00000000E+00
  0.00000000E+00  0.00000000E+00  0.00000000E+00
  0.00000000E+00  0.00000000E+00  0.00000000E+00
  0.00000000E+00  0.00000000E+00  0.00000000E+00
  0.00000000E+00  0.00000000E+00  0.00000000E+00
  0.00000000E+00  0.00000000E+00  0.00000000E+00
  0.00000000E+00  0.00000000E+00  0.00000000E+00
  0.00000000E+00  0.00000000E+00  0.00000000E+00
  0.00000000E+00  0.00000000E+00  0.00000000E+00
  0.00000000E+00  0.00000000E+00  0.00000000E+00
  0.00000000E+00  0.00000000E+00  0.00000000E+00
  0.00000000E+00  0.00000000E+00  0.00000000E+00
  0.00000000E+00  0.00000000E+00  0.00000000E+00
  0.00000000E+00  0.00000000E+00  0.00000000E+00
  0.00000000E+00  0.00000000E+00  0.00000000E+00
  0.00000000E+00  0.00000000E+00  0.00000000E+00
