C O H                                   
   1.00000000000000     
    40.0000000000000000    0.0000000000000000    0.0000000000000000
     0.0000000000000000   40.0000000000000000    0.0000000000000000
     0.0000000000000000    0.0000000000000000   40.0000000000000000
   C    O    H 
    10     2    10
Selective dynamics
Direct
  0.4934684028187419  0.4571164790612130  0.5020647128264173   T   T   T
  0.4590720676892701  0.4537002997219446  0.5004597149927861   T   T   T
  0.4411158174241265  0.4835459934138342  0.4985010178906961   T   T   T
  0.4570983921882572  0.5153792704812332  0.4984051899908692   T   T   T
  0.4911756686825868  0.5189770958308770  0.4999883922142985   T   T   T
  0.5101747308799318  0.4890472334240954  0.5017163907683795   T   T   T
  0.5461281246999121  0.4885201935477426  0.5028208011592952   T   T   T
  0.5667690514597012  0.5157540149501685  0.5020895375514485   T   T   T
  0.6037037170108732  0.5138324212741026  0.5024490883247665   T   T   T
  0.4014572777767285  0.5231331531443359  0.4948049974100641   T   T   T
  0.4334846119605018  0.5395644074623576  0.4964935233493009   T   T   T
  0.4079896230355970  0.4874146659988909  0.4965477699189051   T   T   T
  0.6130242606525158  0.4880598956306841  0.5032228258602203   T   T   T
  0.6139689376848594  0.5265993278295653  0.4802444875098786   T   T   T
  0.6137328636878365  0.5278290770216572  0.5240120270335922   T   T   T
  0.5560423821045646  0.5408849577675454  0.5010161469855561   T   T   T
  0.5576495167759816  0.4637566868598242  0.5040113815939833   T   T   T
  0.5026469249456440  0.5436245565256215  0.4997458643066324   T   T   T
  0.3894892303298150  0.5286780592995939  0.4707571029547850   T   T   T
  0.3861845973177012  0.5303452224818201  0.5163878855553392   T   T   T
  0.4466834254657073  0.4294917207973086  0.5006195010654864   T   T   T
  0.5089413754091296  0.4347442674755939  0.5036406407373093   T   T   T
 
  0.00000000E+00  0.00000000E+00  0.00000000E+00
  0.00000000E+00  0.00000000E+00  0.00000000E+00
  0.00000000E+00  0.00000000E+00  0.00000000E+00
  0.00000000E+00  0.00000000E+00  0.00000000E+00
  0.00000000E+00  0.00000000E+00  0.00000000E+00
  0.00000000E+00  0.00000000E+00  0.00000000E+00
  0.00000000E+00  0.00000000E+00  0.00000000E+00
  0.00000000E+00  0.00000000E+00  0.00000000E+00
  0.00000000E+00  0.00000000E+00  0.00000000E+00
  0.00000000E+00  0.00000000E+00  0.00000000E+00
  0.00000000E+00  0.00000000E+00  0.00000000E+00
  0.00000000E+00  0.00000000E+00  0.00000000E+00
  0.00000000E+00  0.00000000E+00  0.00000000E+00
  0.00000000E+00  0.00000000E+00  0.00000000E+00
  0.00000000E+00  0.00000000E+00  0.00000000E+00
  0.00000000E+00  0.00000000E+00  0.00000000E+00
  0.00000000E+00  0.00000000E+00  0.00000000E+00
  0.00000000E+00  0.00000000E+00  0.00000000E+00
  0.00000000E+00  0.00000000E+00  0.00000000E+00
  0.00000000E+00  0.00000000E+00  0.00000000E+00
  0.00000000E+00  0.00000000E+00  0.00000000E+00
  0.00000000E+00  0.00000000E+00  0.00000000E+00
