C N O H                                 
   1.00000000000000     
    40.0000000000000000    0.0000000000000000    0.0000000000000000
     0.0000000000000000   40.0000000000000000    0.0000000000000000
     0.0000000000000000    0.0000000000000000   40.0000000000000000
   C    N    O    H 
     7     1     1     7
Selective dynamics
Direct
  0.5159039506275170  0.4685511005497317  0.5000000000000000   T   T   T
  0.5502843791651121  0.4745438279337899  0.5000000000000000   T   T   T
  0.5623154110193116  0.5073271172777384  0.5000000000000000   T   T   T
  0.5397071888954943  0.5341050839351043  0.5000000000000000   T   T   T
  0.5054119103245399  0.5282559460405017  0.5000000000000000   T   T   T
  0.4930238998716453  0.4952604449871837  0.5000000000000000   T   T   T
  0.4572927271306131  0.4876520634727944  0.5000000000000000   T   T   T
  0.4350767255405860  0.5109544247121809  0.5000000000000000   T   T   T
  0.4025426557266747  0.4974105471770834  0.5000009999999975   T   T   T
  0.3885374672539265  0.5173543035818989  0.5000009999999975   T   T   T
  0.4496475031948493  0.4612514606052487  0.5000000000000000   T   T   T
  0.4878130336985065  0.5490639920657850  0.5000000000000000   T   T   T
  0.5490362809797741  0.5597308707035817  0.5000000000000000   T   T   T
  0.5891681508658871  0.5120749903849104  0.4999990000000025   T   T   T
  0.5676912660668147  0.4535585056440609  0.4999990000000025   T   T   T
  0.5065484496387384  0.4429053209283990  0.5000000000000000   T   T   T
 
  0.00000000E+00  0.00000000E+00  0.00000000E+00
  0.00000000E+00  0.00000000E+00  0.00000000E+00
  0.00000000E+00  0.00000000E+00  0.00000000E+00
  0.00000000E+00  0.00000000E+00  0.00000000E+00
  0.00000000E+00  0.00000000E+00  0.00000000E+00
  0.00000000E+00  0.00000000E+00  0.00000000E+00
  0.00000000E+00  0.00000000E+00  0.00000000E+00
  0.00000000E+00  0.00000000E+00  0.00000000E+00
  0.00000000E+00  0.00000000E+00  0.00000000E+00
  0.00000000E+00  0.00000000E+00  0.00000000E+00
  0.00000000E+00  0.00000000E+00  0.00000000E+00
  0.00000000E+00  0.00000000E+00  0.00000000E+00
  0.00000000E+00  0.00000000E+00  0.00000000E+00
  0.00000000E+00  0.00000000E+00  0.00000000E+00
  0.00000000E+00  0.00000000E+00  0.00000000E+00
  0.00000000E+00  0.00000000E+00  0.00000000E+00
