!PBE0 def2-SV(p) Opt Freq d3 TightSCF SlowConv RIJCOSX defgrid2
 
%pal
nprocs 4
end
 
%scf
MaxIter 1500
end
 
%maxcore 3000
 

 
* xyz 0 1
C    -2.2745372   -1.1118475   -0.2023918 
C    -1.2314825    0.0092311   -0.2840017 
N     0.0079080   -0.4766518    0.3013014 
H     0.0390128   -0.2706303    1.2928499 
C     1.2640645   -0.1288510   -0.3318088 
C     1.6493810    1.3572086   -0.2435284 
H     1.6741344    1.6786589    0.7966088 
H     0.9379273    1.9756095   -0.7858818 
H     2.6344838    1.5123997   -0.6767539 
C     2.3633775   -0.9898457    0.2930235 
H     2.0783760   -2.0372263    0.2552704 
H     3.2992178   -0.8577054   -0.2432468 
H     2.5152220   -0.7090490    1.3331032 
H     1.1667685   -0.4004601   -1.3913834 
C    -1.7786868    1.2733913    0.3910674 
H    -1.0586884    2.0866486    0.3485308 
H    -2.0055602    1.0665366    1.4357984 
H    -2.6927358    1.5969955   -0.1011913 
H    -1.0382235    0.2244299   -1.3423291 
H    -1.8924398   -2.0066429   -0.6850209 
H    -2.4871873   -1.3463463    0.8376158 
H    -3.1974549   -0.8105319   -0.6911360
*
