C O H                                   
   1.00000000000000     
    40.0000000000000000    0.0000000000000000    0.0000000000000000
     0.0000000000000000   40.0000000000000000    0.0000000000000000
     0.0000000000000000    0.0000000000000000   40.0000000000000000
   C    O    H 
    10     1    12
Selective dynamics
Direct
  0.5032002066300407  0.5307369124266756  0.4999993585838283   T   T   T
  0.4694387616332634  0.5363763300587223  0.4999982679266921   T   T   T
  0.4467747743396586  0.5088445154496952  0.4999984547883187   T   T   T
  0.4589077883602073  0.4754867332724189  0.5000011407841782   T   T   T
  0.4928670410651605  0.4702572840344814  0.5000027627096841   T   T   T
  0.5161570778257314  0.4973715468350690  0.5000008155648956   T   T   T
  0.5509153578341497  0.4894904014121337  0.5000001463139654   T   T   T
  0.5770780354272560  0.5118283390439942  0.5000001006509578   T   T   T
  0.6125412627423543  0.5017964023663666  0.5000023528640511   T   T   T
  0.3892881181689205  0.4910244060937359  0.4999970933708937   T   T   T
  0.4145888984697237  0.5170312151052698  0.4999971832250480   T   T   T
  0.6254430069450549  0.5126555024401398  0.5218374459388997   T   T   T
  0.6254423299141578  0.5126477854394125  0.4781627487033120   T   T   T
  0.6159728549660102  0.4746252612415702  0.5000067209028032   T   T   T
  0.5719524492227350  0.5386743896922965  0.4999966169263388   T   T   T
  0.5571578658702379  0.4628619777971679  0.5000058678534955   T   T   T
  0.5025524223588533  0.4447841360670992  0.5000048652259963   T   T   T
  0.4418023920375944  0.4543648565331466  0.5000019617960803   T   T   T
  0.3916043196553289  0.4756272247913813  0.5225821048165926   T   T   T
  0.3916076027434912  0.4756261177662680  0.4774128775211750   T   T   T
  0.3654423272966127  0.5042983550282472  0.4999943316194617   T   T   T
  0.4590992632332274  0.5615663271069877  0.4999972830758779   T   T   T
  0.5201678432602677  0.5520239799977489  0.4999984988374564   T   T   T
 
  0.00000000E+00  0.00000000E+00  0.00000000E+00
  0.00000000E+00  0.00000000E+00  0.00000000E+00
  0.00000000E+00  0.00000000E+00  0.00000000E+00
  0.00000000E+00  0.00000000E+00  0.00000000E+00
  0.00000000E+00  0.00000000E+00  0.00000000E+00
  0.00000000E+00  0.00000000E+00  0.00000000E+00
  0.00000000E+00  0.00000000E+00  0.00000000E+00
  0.00000000E+00  0.00000000E+00  0.00000000E+00
  0.00000000E+00  0.00000000E+00  0.00000000E+00
  0.00000000E+00  0.00000000E+00  0.00000000E+00
  0.00000000E+00  0.00000000E+00  0.00000000E+00
  0.00000000E+00  0.00000000E+00  0.00000000E+00
  0.00000000E+00  0.00000000E+00  0.00000000E+00
  0.00000000E+00  0.00000000E+00  0.00000000E+00
  0.00000000E+00  0.00000000E+00  0.00000000E+00
  0.00000000E+00  0.00000000E+00  0.00000000E+00
  0.00000000E+00  0.00000000E+00  0.00000000E+00
  0.00000000E+00  0.00000000E+00  0.00000000E+00
  0.00000000E+00  0.00000000E+00  0.00000000E+00
  0.00000000E+00  0.00000000E+00  0.00000000E+00
  0.00000000E+00  0.00000000E+00  0.00000000E+00
  0.00000000E+00  0.00000000E+00  0.00000000E+00
  0.00000000E+00  0.00000000E+00  0.00000000E+00
