C N H                                   
   1.00000000000000     
    40.0000000000000000    0.0000000000000000    0.0000000000000000
     0.0000000000000000   40.0000000000000000    0.0000000000000000
     0.0000000000000000    0.0000000000000000   40.0000000000000000
   C    N    H 
     4     1     9
Selective dynamics
Direct
  0.5146117180827082  0.4711674822216516  0.4950788655670016   T   T   T
  0.5146159643674016  0.5288421300411320  0.4951162815966136   T   T   T
  0.4777415463870716  0.5193473236727534  0.5016760532955618   T   T   T
  0.4777540741327961  0.4806447181139336  0.5017212242757623   T   T   T
  0.5350020255755835  0.4999960380128111  0.5052348939825198   T   T   T
  0.5365972596928918  0.4999777810269207  0.5306274912416222   T   T   T
  0.4696656396012918  0.4710164707360614  0.5259622727385872   T   T   T
  0.4610481129942611  0.4701968990595370  0.4828358495971349   T   T   T
  0.4695575230722880  0.5290317737189743  0.5258615964257887   T   T   T
  0.4610934998671930  0.5297299535071294  0.4827046119014315   T   T   T
  0.5185832782169124  0.5329837818741774  0.4683461685358341   T   T   T
  0.5225859298692352  0.5513279847166226  0.5083194393100531   T   T   T
  0.5185388223467280  0.4670884388596493  0.4682946433982307   T   T   T
  0.5226056057936278  0.4486522244386459  0.5082196081338686   T   T   T
 
  0.00000000E+00  0.00000000E+00  0.00000000E+00
  0.00000000E+00  0.00000000E+00  0.00000000E+00
  0.00000000E+00  0.00000000E+00  0.00000000E+00
  0.00000000E+00  0.00000000E+00  0.00000000E+00
  0.00000000E+00  0.00000000E+00  0.00000000E+00
  0.00000000E+00  0.00000000E+00  0.00000000E+00
  0.00000000E+00  0.00000000E+00  0.00000000E+00
  0.00000000E+00  0.00000000E+00  0.00000000E+00
  0.00000000E+00  0.00000000E+00  0.00000000E+00
  0.00000000E+00  0.00000000E+00  0.00000000E+00
  0.00000000E+00  0.00000000E+00  0.00000000E+00
  0.00000000E+00  0.00000000E+00  0.00000000E+00
  0.00000000E+00  0.00000000E+00  0.00000000E+00
  0.00000000E+00  0.00000000E+00  0.00000000E+00
