C O H                                   
   1.00000000000000     
    40.0000000000000000    0.0000000000000000    0.0000000000000000
     0.0000000000000000   40.0000000000000000    0.0000000000000000
     0.0000000000000000    0.0000000000000000   40.0000000000000000
   C    O    H 
    10     1    12
Selective dynamics
Direct
  0.4856596523503853  0.5214670220692454  0.4999970751546030   T   T   T
  0.4536646683459864  0.5073400165423223  0.4999974159141232   T   T   T
  0.4496981336776926  0.4717363022066223  0.5000013527540261   T   T   T
  0.4778196271389561  0.4512324419907614  0.5000027811694849   T   T   T
  0.5096308093549240  0.4652010008279461  0.5000013795841767   T   T   T
  0.5139828704866574  0.5010348561182667  0.4999980295823860   T   T   T
  0.5465482748699770  0.5162505183717201  0.4999965889475533   T   T   T
  0.5766807400094223  0.4999572301852453  0.5000018777453334   T   T   T
  0.6093218271754921  0.5171240647341122  0.5000000318885185   T   T   T
  0.3939028147485999  0.5164606782734111  0.4999995218477693   T   T   T
  0.4279839610143057  0.5287110592866640  0.4999944896915736   T   T   T
  0.6241803301719671  0.5091401223004510  0.4781645456436010   T   T   T
  0.6241760684152311  0.5091524014577118  0.5218431395541216   T   T   T
  0.6070632520844086  0.5444186660180819  0.4999921760630457   T   T   T
  0.5773835753227416  0.4726399421017220  0.5000100721929925   T   T   T
  0.5469238535314176  0.5435877801931568  0.4999909206649420   T   T   T
  0.5313478003326892  0.4488018410273042  0.5000025338701448   T   T   T
  0.4747382846019832  0.4241911105092129  0.5000037898049996   T   T   T
  0.4248359594502062  0.4606824119681221  0.5000046467721759   T   T   T
  0.3783515431123021  0.5389044051433700  0.4999999966818933   T   T   T
  0.3890233566320589  0.5016845553676177  0.5226000736075349   T   T   T
  0.3890173558077024  0.5016812870351615  0.4774023611117073   T   T   T
  0.4880652413649003  0.5486002862717640  0.4999951997532506   T   T   T
 
  0.00000000E+00  0.00000000E+00  0.00000000E+00
  0.00000000E+00  0.00000000E+00  0.00000000E+00
  0.00000000E+00  0.00000000E+00  0.00000000E+00
  0.00000000E+00  0.00000000E+00  0.00000000E+00
  0.00000000E+00  0.00000000E+00  0.00000000E+00
  0.00000000E+00  0.00000000E+00  0.00000000E+00
  0.00000000E+00  0.00000000E+00  0.00000000E+00
  0.00000000E+00  0.00000000E+00  0.00000000E+00
  0.00000000E+00  0.00000000E+00  0.00000000E+00
  0.00000000E+00  0.00000000E+00  0.00000000E+00
  0.00000000E+00  0.00000000E+00  0.00000000E+00
  0.00000000E+00  0.00000000E+00  0.00000000E+00
  0.00000000E+00  0.00000000E+00  0.00000000E+00
  0.00000000E+00  0.00000000E+00  0.00000000E+00
  0.00000000E+00  0.00000000E+00  0.00000000E+00
  0.00000000E+00  0.00000000E+00  0.00000000E+00
  0.00000000E+00  0.00000000E+00  0.00000000E+00
  0.00000000E+00  0.00000000E+00  0.00000000E+00
  0.00000000E+00  0.00000000E+00  0.00000000E+00
  0.00000000E+00  0.00000000E+00  0.00000000E+00
  0.00000000E+00  0.00000000E+00  0.00000000E+00
  0.00000000E+00  0.00000000E+00  0.00000000E+00
  0.00000000E+00  0.00000000E+00  0.00000000E+00
