C F O H                                 
   1.00000000000000     
    40.0000000000000000    0.0000000000000000    0.0000000000000000
     0.0000000000000000   40.0000000000000000    0.0000000000000000
     0.0000000000000000    0.0000000000000000   40.0000000000000000
   C    F    O    H 
     9     3     1     7
Selective dynamics
Direct
  0.5066699928642218  0.5363783902338116  0.5001217872886222   T   T   T
  0.4718996926961635  0.5365693591920576  0.5003208746553721   T   T   T
  0.4544886542001160  0.5062154039385611  0.5005666135383646   T   T   T
  0.4718385006837856  0.4758162604763922  0.5005766030217673   T   T   T
  0.5066627777156960  0.4758445643883429  0.5003487733597719   T   T   T
  0.5244662247922366  0.5061363298831051  0.5000974762083410   T   T   T
  0.5620373642195339  0.5075148472163065  0.4997794292863856   T   T   T
  0.5813468570361718  0.4750703139910279  0.4995998258560447   T   T   T
  0.4168722990832283  0.5056596002035586  0.4999841698618453   T   T   T
  0.4048370099392141  0.4955812751268667  0.4694103602134713   T   T   T
  0.4039739549627285  0.4838167127018480  0.5230156673894272   T   T   T
  0.4030375317977491  0.5361879238432475  0.5063799596868629   T   T   T
  0.5765469646682190  0.5346899433843958  0.4996487172322022   T   T   T
  0.5753140538640185  0.4599851901591717  0.5217872791916131   T   T   T
  0.5748424097832244  0.4599202999235181  0.4775899214122172   T   T   T
  0.6081486951547158  0.4805090951587702  0.4993089458275756   T   T   T
  0.5198423392593998  0.4520187844715167  0.5003493290520921   T   T   T
  0.4581533173714483  0.4522547155862434  0.5007951927175752   T   T   T
  0.4582682846590973  0.5601353351356004  0.5003451937063969   T   T   T
  0.5207530752490239  0.5596956549856794  0.4999738804940512   T   T   T
 
  0.00000000E+00  0.00000000E+00  0.00000000E+00
  0.00000000E+00  0.00000000E+00  0.00000000E+00
  0.00000000E+00  0.00000000E+00  0.00000000E+00
  0.00000000E+00  0.00000000E+00  0.00000000E+00
  0.00000000E+00  0.00000000E+00  0.00000000E+00
  0.00000000E+00  0.00000000E+00  0.00000000E+00
  0.00000000E+00  0.00000000E+00  0.00000000E+00
  0.00000000E+00  0.00000000E+00  0.00000000E+00
  0.00000000E+00  0.00000000E+00  0.00000000E+00
  0.00000000E+00  0.00000000E+00  0.00000000E+00
  0.00000000E+00  0.00000000E+00  0.00000000E+00
  0.00000000E+00  0.00000000E+00  0.00000000E+00
  0.00000000E+00  0.00000000E+00  0.00000000E+00
  0.00000000E+00  0.00000000E+00  0.00000000E+00
  0.00000000E+00  0.00000000E+00  0.00000000E+00
  0.00000000E+00  0.00000000E+00  0.00000000E+00
  0.00000000E+00  0.00000000E+00  0.00000000E+00
  0.00000000E+00  0.00000000E+00  0.00000000E+00
  0.00000000E+00  0.00000000E+00  0.00000000E+00
  0.00000000E+00  0.00000000E+00  0.00000000E+00
