C H                                     
   1.00000000000000     
    40.0000000000000000    0.0000000000000000    0.0000000000000000
     0.0000000000000000   40.0000000000000000    0.0000000000000000
     0.0000000000000000    0.0000000000000000   40.0000000000000000
   C    H 
     8     6
Selective dynamics
Direct
  0.5340912429909884  0.4691262026321409  0.4999993749580004   T   T   T
  0.5514071193997081  0.5000007481315003  0.5000001960529370   T   T   T
  0.5340884753120670  0.5308739251023422  0.4999996669803147   T   T   T
  0.4996903357672595  0.5312016615336647  0.4999971524526130   T   T   T
  0.4818492190544984  0.4999985248935489  0.4999966468721150   T   T   T
  0.4996925938728639  0.4687960360586975  0.4999970015919039   T   T   T
  0.4471506633422173  0.4999976867261466  0.4999988704069255   T   T   T
  0.4164160603846959  0.5000009474395573  0.5000024913592188   T   T   T
  0.4856356939212095  0.4454953535784604  0.4999977442474893   T   T   T
  0.3895063710071254  0.5000036784410109  0.5000098230096146   T   T   T
  0.4856309073801806  0.5545020412829882  0.4999980184005312   T   T   T
  0.5480953122354733  0.5542066881032025  0.5000009823968092   T   T   T
  0.5786468235768296  0.5000015024493935  0.5000010672659535   T   T   T
  0.5480991817548837  0.4457940036273479  0.5000009640055807   T   T   T
 
  0.00000000E+00  0.00000000E+00  0.00000000E+00
  0.00000000E+00  0.00000000E+00  0.00000000E+00
  0.00000000E+00  0.00000000E+00  0.00000000E+00
  0.00000000E+00  0.00000000E+00  0.00000000E+00
  0.00000000E+00  0.00000000E+00  0.00000000E+00
  0.00000000E+00  0.00000000E+00  0.00000000E+00
  0.00000000E+00  0.00000000E+00  0.00000000E+00
  0.00000000E+00  0.00000000E+00  0.00000000E+00
  0.00000000E+00  0.00000000E+00  0.00000000E+00
  0.00000000E+00  0.00000000E+00  0.00000000E+00
  0.00000000E+00  0.00000000E+00  0.00000000E+00
  0.00000000E+00  0.00000000E+00  0.00000000E+00
  0.00000000E+00  0.00000000E+00  0.00000000E+00
  0.00000000E+00  0.00000000E+00  0.00000000E+00
