C O H                                   
   1.00000000000000     
    40.0000000000000000    0.0000000000000000    0.0000000000000000
     0.0000000000000000   40.0000000000000000    0.0000000000000000
     0.0000000000000000    0.0000000000000000   40.0000000000000000
   C    O    H 
    12     1    10
Selective dynamics
Direct
  0.5343787124889068  0.4852930106821091  0.5177815594022910   T   T   T
  0.5659746069724172  0.4707888777601066  0.5187114248051953   T   T   T
  0.5930686796469259  0.4861415227994582  0.5032094422226608   T   T   T
  0.5884275662249782  0.5163913780637270  0.4866546454340396   T   T   T
  0.5569651467447885  0.5310763402602413  0.4852597880471693   T   T   T
  0.5300707831452530  0.5153598713351595  0.5007490650726502   T   T   T
  0.4699360443769800  0.5153673060986126  0.4992440189166221   T   T   T
  0.4430485336768001  0.5310966388843743  0.5147411470170921   T   T   T
  0.4115857816997643  0.5164160937489018  0.5133467666276064   T   T   T
  0.4069230690803183  0.4861712256844943  0.4967870515198630   T   T   T
  0.4340126337539144  0.4708058851866576  0.4812874883368163   T   T   T
  0.4656087490262920  0.4853033923594332  0.4822172563864144   T   T   T
  0.5000033262956520  0.5323542471637855  0.4999944834587920   T   T   T
  0.4866102210952774  0.4734374785087886  0.4699094193982801   T   T   T
  0.4306043820228063  0.4473391450245445  0.4681578568162381   T   T   T
  0.3824022634989313  0.4747035251715656  0.4959225579037407   T   T   T
  0.3906339794058423  0.5286758527313835  0.5253915299734657   T   T   T
  0.4470982811288353  0.5546138788188564  0.5275616032740185   T   T   T
  0.5529262577527347  0.5545948700641238  0.4724358310218847   T   T   T
  0.6093832663016763  0.5286473168991452  0.4746157404189792   T   T   T
  0.6175893414260466  0.4746692513213892  0.5040887799565080   T   T   T
  0.5693722072068073  0.4473220276938463  0.5318469360473956   T   T   T
  0.5133741670280793  0.4734318637392215  0.5300846079422366   T   T   T
 
  0.00000000E+00  0.00000000E+00  0.00000000E+00
  0.00000000E+00  0.00000000E+00  0.00000000E+00
  0.00000000E+00  0.00000000E+00  0.00000000E+00
  0.00000000E+00  0.00000000E+00  0.00000000E+00
  0.00000000E+00  0.00000000E+00  0.00000000E+00
  0.00000000E+00  0.00000000E+00  0.00000000E+00
  0.00000000E+00  0.00000000E+00  0.00000000E+00
  0.00000000E+00  0.00000000E+00  0.00000000E+00
  0.00000000E+00  0.00000000E+00  0.00000000E+00
  0.00000000E+00  0.00000000E+00  0.00000000E+00
  0.00000000E+00  0.00000000E+00  0.00000000E+00
  0.00000000E+00  0.00000000E+00  0.00000000E+00
  0.00000000E+00  0.00000000E+00  0.00000000E+00
  0.00000000E+00  0.00000000E+00  0.00000000E+00
  0.00000000E+00  0.00000000E+00  0.00000000E+00
  0.00000000E+00  0.00000000E+00  0.00000000E+00
  0.00000000E+00  0.00000000E+00  0.00000000E+00
  0.00000000E+00  0.00000000E+00  0.00000000E+00
  0.00000000E+00  0.00000000E+00  0.00000000E+00
  0.00000000E+00  0.00000000E+00  0.00000000E+00
  0.00000000E+00  0.00000000E+00  0.00000000E+00
  0.00000000E+00  0.00000000E+00  0.00000000E+00
  0.00000000E+00  0.00000000E+00  0.00000000E+00
