C F O H                                 
   1.00000000000000     
    40.0000000000000000    0.0000000000000000    0.0000000000000000
     0.0000000000000000   40.0000000000000000    0.0000000000000000
     0.0000000000000000    0.0000000000000000   40.0000000000000000
   C    F    O    H 
     9     3     1     7
Selective dynamics
Direct
  0.5065285368725512  0.5368111022888655  0.5001130332941841   T   T   T
  0.4720689198861265  0.5368025843848088  0.5004233501799433   T   T   T
  0.4538400100398476  0.5062997217262790  0.5009309469515628   T   T   T
  0.4721919375855563  0.4758073826806424  0.5006903879271576   T   T   T
  0.5067119029491423  0.4758939371041677  0.5003428130569176   T   T   T
  0.5256035248827118  0.5063982953139075  0.5000885606021654   T   T   T
  0.5616159130447613  0.5076627157292535  0.4997647677898556   T   T   T
  0.5810870866619453  0.4748420650569045  0.4996162048567641   T   T   T
  0.4173130363371271  0.5056513513527179  0.5000892017949639   T   T   T
  0.4034666322789064  0.4952703552476052  0.4692566256831157   T   T   T
  0.4030055691290642  0.4832835610169113  0.5227141540846532   T   T   T
  0.4026386446820922  0.5361661832191515  0.5062469088794401   T   T   T
  0.5778812251080439  0.5350516019912632  0.4995698057498004   T   T   T
  0.5756520679449082  0.4593863281609600  0.5217970546618034   T   T   T
  0.5751886890899414  0.4593283887956190  0.4775933113578361   T   T   T
  0.6078779915318009  0.4805919765381574  0.4993212501650817   T   T   T
  0.5197534766169909  0.4519292355314093  0.5002772414423191   T   T   T
  0.4586900365127349  0.4520860242373530  0.5008642563379126   T   T   T
  0.4584951361773761  0.5604554324966387  0.5004056021763006   T   T   T
  0.5203896626683999  0.5602817571274485  0.4998945230082299   T   T   T
 
  0.00000000E+00  0.00000000E+00  0.00000000E+00
  0.00000000E+00  0.00000000E+00  0.00000000E+00
  0.00000000E+00  0.00000000E+00  0.00000000E+00
  0.00000000E+00  0.00000000E+00  0.00000000E+00
  0.00000000E+00  0.00000000E+00  0.00000000E+00
  0.00000000E+00  0.00000000E+00  0.00000000E+00
  0.00000000E+00  0.00000000E+00  0.00000000E+00
  0.00000000E+00  0.00000000E+00  0.00000000E+00
  0.00000000E+00  0.00000000E+00  0.00000000E+00
  0.00000000E+00  0.00000000E+00  0.00000000E+00
  0.00000000E+00  0.00000000E+00  0.00000000E+00
  0.00000000E+00  0.00000000E+00  0.00000000E+00
  0.00000000E+00  0.00000000E+00  0.00000000E+00
  0.00000000E+00  0.00000000E+00  0.00000000E+00
  0.00000000E+00  0.00000000E+00  0.00000000E+00
  0.00000000E+00  0.00000000E+00  0.00000000E+00
  0.00000000E+00  0.00000000E+00  0.00000000E+00
  0.00000000E+00  0.00000000E+00  0.00000000E+00
  0.00000000E+00  0.00000000E+00  0.00000000E+00
  0.00000000E+00  0.00000000E+00  0.00000000E+00
