C O H                                   
   1.00000000000000     
    25.0000000000000000    0.0000000000000000    0.0000000000000000
     0.0000000000000000   25.0000000000000000    0.0000000000000000
     0.0000000000000000    0.0000000000000000   25.0000000000000000
   C    O    H 
     7     2     6
Selective dynamics
Direct
  0.4753361270220303  0.4972788244413403  0.4289364316784832   T   T   T
  0.4284352587656437  0.4774569648989069  0.4591064699975629   T   T   T
  0.5236068778459518  0.5122487695095745  0.4589976340342479   T   T   T
  0.4302770442961882  0.4733748896462013  0.5127641566319969   T   T   T
  0.5265783841679392  0.5085517228395945  0.5129943520005610   T   T   T
  0.4788111398296611  0.4884785729317160  0.5430203283295645   T   T   T
  0.5749339363209437  0.5234087764269496  0.5446034248573252   T   T   T
  0.4797649680080820  0.4845363586889354  0.5925078776650448   T   T   T
  0.4737363369897979  0.5010993817789354  0.3792913807375982   T   T   T
  0.3931080523458448  0.4665835076467759  0.4358800627703953   T   T   T
  0.5573409750584991  0.5266925046024135  0.4352694914089381   T   T   T
  0.3964790699656832  0.4589359667591253  0.5363154046578347   T   T   T
  0.5651574718796770  0.5548767000461902  0.5737957464154672   T   T   T
  0.5892262056408715  0.4889761555815484  0.5680090312953012   T   T   T
  0.6072081518631790  0.5375009042017997  0.5185062075196981   T   T   T
 
  0.00000000E+00  0.00000000E+00  0.00000000E+00
  0.00000000E+00  0.00000000E+00  0.00000000E+00
  0.00000000E+00  0.00000000E+00  0.00000000E+00
  0.00000000E+00  0.00000000E+00  0.00000000E+00
  0.00000000E+00  0.00000000E+00  0.00000000E+00
  0.00000000E+00  0.00000000E+00  0.00000000E+00
  0.00000000E+00  0.00000000E+00  0.00000000E+00
  0.00000000E+00  0.00000000E+00  0.00000000E+00
  0.00000000E+00  0.00000000E+00  0.00000000E+00
  0.00000000E+00  0.00000000E+00  0.00000000E+00
  0.00000000E+00  0.00000000E+00  0.00000000E+00
  0.00000000E+00  0.00000000E+00  0.00000000E+00
  0.00000000E+00  0.00000000E+00  0.00000000E+00
  0.00000000E+00  0.00000000E+00  0.00000000E+00
  0.00000000E+00  0.00000000E+00  0.00000000E+00
