C O H                                   
   1.00000000000000     
    40.0000000000000000    0.0000000000000000    0.0000000000000000
     0.0000000000000000   40.0000000000000000    0.0000000000000000
     0.0000000000000000    0.0000000000000000   40.0000000000000000
   C    O    H 
     4     1     4
Selective dynamics
Direct
  0.4858050733548392  0.4725497352878288  0.5000000000000000   T   T   T
  0.5183739227189136  0.4821126591037247  0.5000000000000000   T   T   T
  0.5183729227189161  0.5178883408962727  0.5000000000000000   T   T   T
  0.4858030733548372  0.5274492647121666  0.5000000000000000   T   T   T
  0.4654459172630445  0.4999990000000025  0.5000000000000000   T   T   T
  0.4732708612267851  0.5512674913765272  0.5000000000000000   T   T   T
  0.5398256840679472  0.5342094844541675  0.4999990000000025   T   T   T
  0.5398276840679421  0.4657935155458318  0.5000000000000000   T   T   T
  0.4732738612267846  0.4487305086234706  0.5000000000000000   T   T   T
 
  0.00000000E+00  0.00000000E+00  0.00000000E+00
  0.00000000E+00  0.00000000E+00  0.00000000E+00
  0.00000000E+00  0.00000000E+00  0.00000000E+00
  0.00000000E+00  0.00000000E+00  0.00000000E+00
  0.00000000E+00  0.00000000E+00  0.00000000E+00
  0.00000000E+00  0.00000000E+00  0.00000000E+00
  0.00000000E+00  0.00000000E+00  0.00000000E+00
  0.00000000E+00  0.00000000E+00  0.00000000E+00
  0.00000000E+00  0.00000000E+00  0.00000000E+00
