C N O H                                 
   1.00000000000000     
    40.0000000000000000    0.0000000000000000    0.0000000000000000
     0.0000000000000000   40.0000000000000000    0.0000000000000000
     0.0000000000000000    0.0000000000000000   40.0000000000000000
   C    N    O    H 
     8     1     3     7
Selective dynamics
Direct
  0.5013454587180846  0.4634507090660591  0.4999806262628326   T   T   T
  0.4666205936839987  0.4633637873581833  0.5000057726657445   T   T   T
  0.4499184670450944  0.4940669068559345  0.5000392040348274   T   T   T
  0.4669447270282916  0.5245369861603422  0.5000471416225167   T   T   T
  0.5017785979309295  0.5241717503197023  0.5000162061738394   T   T   T
  0.5192778032362995  0.4936837786143045  0.4999821111307057   T   T   T
  0.5568885045967917  0.4920797536021126  0.4999542410065843   T   T   T
  0.5765073602517603  0.5241649027615196  0.4999404439434372   T   T   T
  0.4130821648891612  0.4942536649195191  0.5000658854709741   T   T   T
  0.5710382531923628  0.4646246724030405  0.4999485180397940   T   T   T
  0.3985373712920932  0.5217118403642615  0.5000905132113758   T   T   T
  0.3983112666563855  0.4669141077350361  0.5000623374017579   T   T   T
  0.5703285931477851  0.5392830713811918  0.5220695799934774   T   T   T
  0.6032623271222093  0.5184324414699688  0.4998767436094411   T   T   T
  0.5702298504262870  0.5393371367572257  0.4778789660630807   T   T   T
  0.5151018999790580  0.5479122823880118  0.5000198622498075   T   T   T
  0.4530969460372987  0.5479475265201543  0.5000698673691417   T   T   T
  0.4525613664794363  0.4400795229955534  0.4999972969413662   T   T   T
  0.5151674482866753  0.4399891583278830  0.4999536828093056   T   T   T
 
  0.00000000E+00  0.00000000E+00  0.00000000E+00
  0.00000000E+00  0.00000000E+00  0.00000000E+00
  0.00000000E+00  0.00000000E+00  0.00000000E+00
  0.00000000E+00  0.00000000E+00  0.00000000E+00
  0.00000000E+00  0.00000000E+00  0.00000000E+00
  0.00000000E+00  0.00000000E+00  0.00000000E+00
  0.00000000E+00  0.00000000E+00  0.00000000E+00
  0.00000000E+00  0.00000000E+00  0.00000000E+00
  0.00000000E+00  0.00000000E+00  0.00000000E+00
  0.00000000E+00  0.00000000E+00  0.00000000E+00
  0.00000000E+00  0.00000000E+00  0.00000000E+00
  0.00000000E+00  0.00000000E+00  0.00000000E+00
  0.00000000E+00  0.00000000E+00  0.00000000E+00
  0.00000000E+00  0.00000000E+00  0.00000000E+00
  0.00000000E+00  0.00000000E+00  0.00000000E+00
  0.00000000E+00  0.00000000E+00  0.00000000E+00
  0.00000000E+00  0.00000000E+00  0.00000000E+00
  0.00000000E+00  0.00000000E+00  0.00000000E+00
  0.00000000E+00  0.00000000E+00  0.00000000E+00
