C N H                                   
   1.00000000000000     
    40.0000000000000000    0.0000000000000000    0.0000000000000000
     0.0000000000000000   40.0000000000000000    0.0000000000000000
     0.0000000000000000    0.0000000000000000   40.0000000000000000
   C    N    H 
     9     2    16
Selective dynamics
Direct
  0.5680353975866623  0.4778644731447343  0.5130317550038868   T   T   T
  0.5109225497362857  0.4807369339506025  0.4935211383068463   T   T   T
  0.4810229482765962  0.5345377466382999  0.4872776990703187   T   T   T
  0.4528068100950264  0.5276786685478996  0.5124157204362589   T   T   T
  0.4319138561238702  0.4964445417429815  0.5050983953036408   T   T   T
  0.4511456758291601  0.4634221848600788  0.5064241956169369   T   T   T
  0.4808668876483395  0.4616052627276162  0.4818267188526946   T   T   T
  0.5422267993085015  0.5327711510273616  0.5015619805471303   T   T   T
  0.5727698866516704  0.5112175539450803  0.4951800015119900   T   T   T
  0.5353489780337526  0.4639722340334202  0.5083380047095147   T   T   T
  0.5115617229253715  0.5146091603069181  0.4926581105780343   T   T   T
  0.4732252021524630  0.4707872413213465  0.4570188938207593   T   T   T
  0.4889755970500147  0.4355883091220463  0.4788517556411094   T   T   T
  0.4602882837261433  0.4584536901514156  0.5319148679835664   T   T   T
  0.4340947459156084  0.4428308042612912  0.5001382362363174   T   T   T
  0.4110915759021196  0.4954131882110246  0.5230100005051099   T   T   T
  0.4204249869205725  0.4991652394218420  0.4801823702308781   T   T   T
  0.4634258147895949  0.5267862953628395  0.5378107899274340   T   T   T
  0.4364636812893039  0.5497708179335206  0.5116727938145544   T   T   T
  0.4723057151506538  0.5298656450935653  0.4615305053532168   T   T   T
  0.4888267940792090  0.5607563911910418  0.4886649990880301   T   T   T
  0.5952650825749970  0.5240808794271885  0.5041334126869614   T   T   T
  0.5756963709578713  0.5071187642537396  0.4681627721490216   T   T   T
  0.5426505532327113  0.5556830431591067  0.4864035028992575   T   T   T
  0.5402944736528781  0.5406234832764696  0.5279759913917630   T   T   T
  0.5720234164619740  0.4793634364714165  0.5403936289360161   T   T   T
  0.5863251939286798  0.4588538604171575  0.5048017593987453   T   T   T
 
  0.00000000E+00  0.00000000E+00  0.00000000E+00
  0.00000000E+00  0.00000000E+00  0.00000000E+00
  0.00000000E+00  0.00000000E+00  0.00000000E+00
  0.00000000E+00  0.00000000E+00  0.00000000E+00
  0.00000000E+00  0.00000000E+00  0.00000000E+00
  0.00000000E+00  0.00000000E+00  0.00000000E+00
  0.00000000E+00  0.00000000E+00  0.00000000E+00
  0.00000000E+00  0.00000000E+00  0.00000000E+00
  0.00000000E+00  0.00000000E+00  0.00000000E+00
  0.00000000E+00  0.00000000E+00  0.00000000E+00
  0.00000000E+00  0.00000000E+00  0.00000000E+00
  0.00000000E+00  0.00000000E+00  0.00000000E+00
  0.00000000E+00  0.00000000E+00  0.00000000E+00
  0.00000000E+00  0.00000000E+00  0.00000000E+00
  0.00000000E+00  0.00000000E+00  0.00000000E+00
  0.00000000E+00  0.00000000E+00  0.00000000E+00
  0.00000000E+00  0.00000000E+00  0.00000000E+00
  0.00000000E+00  0.00000000E+00  0.00000000E+00
  0.00000000E+00  0.00000000E+00  0.00000000E+00
  0.00000000E+00  0.00000000E+00  0.00000000E+00
  0.00000000E+00  0.00000000E+00  0.00000000E+00
  0.00000000E+00  0.00000000E+00  0.00000000E+00
  0.00000000E+00  0.00000000E+00  0.00000000E+00
  0.00000000E+00  0.00000000E+00  0.00000000E+00
  0.00000000E+00  0.00000000E+00  0.00000000E+00
  0.00000000E+00  0.00000000E+00  0.00000000E+00
  0.00000000E+00  0.00000000E+00  0.00000000E+00
