C N O H                                 
   1.00000000000000     
    40.0000000000000000    0.0000000000000000    0.0000000000000000
     0.0000000000000000   40.0000000000000000    0.0000000000000000
     0.0000000000000000    0.0000000000000000   40.0000000000000000
   C    N    O    H 
     9     1     2     7
Selective dynamics
Direct
  0.5168003335288497  0.4642442996621564  0.4999979650875743   T   T   T
  0.5509273604142563  0.4667249196306496  0.4999971633930410   T   T   T
  0.5670240630948173  0.4986675046473984  0.4999968447416067   T   T   T
  0.5461966644364655  0.5277297978753202  0.4999941018516276   T   T   T
  0.5120565625539183  0.5250060193417729  0.4999953341425918   T   T   T
  0.4958957610296966  0.4931704036812778  0.4999993415374451   T   T   T
  0.4603748751560251  0.4890999537292434  0.5000032728487349   T   T   T
  0.4077872519699665  0.5164596023414196  0.5000070200309228   T   T   T
  0.6018215221483726  0.5013973866495250  0.4999943358333989   T   T   T
  0.6311179039234724  0.5036747130960364  0.4999971416413226   T   T   T
  0.4446579563067864  0.4623444176770715  0.5000053688611046   T   T   T
  0.4433023360062947  0.5194454269235634  0.5000027496905894   T   T   T
  0.3990072507968806  0.5031063020491178  0.4778539602568501   T   T   T
  0.3982390933791433  0.5419556764045060  0.5000180263603092   T   T   T
  0.3990140865487596  0.5030893443106346  0.5221525010937136   T   T   T
  0.4968204813981436  0.5473934203783949  0.4999965485265756   T   T   T
  0.5578831609692013  0.5522216881745559  0.4999900493327167   T   T   T
  0.5662586577241105  0.4443345713351052  0.4999982810619923   T   T   T
  0.5048146786148476  0.4399355520922120  0.4999999937079186   T   T   T
 
  0.00000000E+00  0.00000000E+00  0.00000000E+00
  0.00000000E+00  0.00000000E+00  0.00000000E+00
  0.00000000E+00  0.00000000E+00  0.00000000E+00
  0.00000000E+00  0.00000000E+00  0.00000000E+00
  0.00000000E+00  0.00000000E+00  0.00000000E+00
  0.00000000E+00  0.00000000E+00  0.00000000E+00
  0.00000000E+00  0.00000000E+00  0.00000000E+00
  0.00000000E+00  0.00000000E+00  0.00000000E+00
  0.00000000E+00  0.00000000E+00  0.00000000E+00
  0.00000000E+00  0.00000000E+00  0.00000000E+00
  0.00000000E+00  0.00000000E+00  0.00000000E+00
  0.00000000E+00  0.00000000E+00  0.00000000E+00
  0.00000000E+00  0.00000000E+00  0.00000000E+00
  0.00000000E+00  0.00000000E+00  0.00000000E+00
  0.00000000E+00  0.00000000E+00  0.00000000E+00
  0.00000000E+00  0.00000000E+00  0.00000000E+00
  0.00000000E+00  0.00000000E+00  0.00000000E+00
  0.00000000E+00  0.00000000E+00  0.00000000E+00
  0.00000000E+00  0.00000000E+00  0.00000000E+00
