C H                                     
   1.00000000000000     
    40.0000000000000000    0.0000000000000000    0.0000000000000000
     0.0000000000000000   40.0000000000000000    0.0000000000000000
     0.0000000000000000    0.0000000000000000   40.0000000000000000
   C    H 
     9    12
Selective dynamics
Direct
  0.4735907311698568  0.4773988647762195  0.4999665328507632   T   T   T
  0.5063515190430010  0.4652788946196367  0.4999512010417888   T   T   T
  0.5134997311601737  0.4282750109888980  0.5000145075619145   T   T   T
  0.5327823229790596  0.4884346389298031  0.4999221840327692   T   T   T
  0.5268784338658890  0.5228661005457980  0.4999119323493915   T   T   T
  0.5553734621346393  0.5475417918837167  0.5000188800609564   T   T   T
  0.4936223435349163  0.5342017199813611  0.4999068147731691   T   T   T
  0.4667583134169888  0.5118656458174087  0.4999554760044234   T   T   T
  0.4311341501552945  0.5241677444691746  0.5000306463321209   T   T   T
  0.4903656938195411  0.4135321924355537  0.4990720465770480   T   T   T
  0.5273277723397456  0.4208581448882072  0.5226148205825325   T   T   T
  0.5290427417551129  0.4210805125774186  0.4784908243757471   T   T   T
  0.5796873841070607  0.5348911733199273  0.4985282212327746   T   T   T
  0.5535441060545878  0.5649858960710645  0.4788305272955284   T   T   T
  0.5552017459281018  0.5628180185301801  0.5229035740914014   T   T   T
  0.4171118814312109  0.5142547945304159  0.4785376779693067   T   T   T
  0.4299127340613964  0.5515724295630235  0.4990372583239733   T   T   T
  0.4178232650541602  0.5159353193864291  0.5226614821902942   T   T   T
  0.4886492222402410  0.5610851442168467  0.4998459437210130   T   T   T
  0.5585543918217510  0.4793087716322830  0.4998698974494289   T   T   T
  0.4527880539272573  0.4596471908366055  0.4999295511836479   T   T   T
 
  0.00000000E+00  0.00000000E+00  0.00000000E+00
  0.00000000E+00  0.00000000E+00  0.00000000E+00
  0.00000000E+00  0.00000000E+00  0.00000000E+00
  0.00000000E+00  0.00000000E+00  0.00000000E+00
  0.00000000E+00  0.00000000E+00  0.00000000E+00
  0.00000000E+00  0.00000000E+00  0.00000000E+00
  0.00000000E+00  0.00000000E+00  0.00000000E+00
  0.00000000E+00  0.00000000E+00  0.00000000E+00
  0.00000000E+00  0.00000000E+00  0.00000000E+00
  0.00000000E+00  0.00000000E+00  0.00000000E+00
  0.00000000E+00  0.00000000E+00  0.00000000E+00
  0.00000000E+00  0.00000000E+00  0.00000000E+00
  0.00000000E+00  0.00000000E+00  0.00000000E+00
  0.00000000E+00  0.00000000E+00  0.00000000E+00
  0.00000000E+00  0.00000000E+00  0.00000000E+00
  0.00000000E+00  0.00000000E+00  0.00000000E+00
  0.00000000E+00  0.00000000E+00  0.00000000E+00
  0.00000000E+00  0.00000000E+00  0.00000000E+00
  0.00000000E+00  0.00000000E+00  0.00000000E+00
  0.00000000E+00  0.00000000E+00  0.00000000E+00
  0.00000000E+00  0.00000000E+00  0.00000000E+00
