C O H                                   
   1.00000000000000     
    40.0000000000000000    0.0000000000000000    0.0000000000000000
     0.0000000000000000   40.0000000000000000    0.0000000000000000
     0.0000000000000000    0.0000000000000000   40.0000000000000000
   C    O    H 
     8     1     6
Selective dynamics
Direct
  0.5174971843143028  0.4610296490664697  0.5000000000000000   T   T   T
  0.5479291072761259  0.4779400238808503  0.5000000000000000   T   T   T
  0.5493238433251435  0.5130022208812358  0.5000000000000000   T   T   T
  0.5204312345534455  0.5322977305318090  0.5000000000000000   T   T   T
  0.4895147815234728  0.5158911751146713  0.5000000000000000   T   T   T
  0.4890966740576920  0.4807663200874449  0.5000000000000000   T   T   T
  0.4367294193904673  0.4975479105803705  0.5000000000000000   T   T   T
  0.4549766477212236  0.5260342835354137  0.5000000000000000   T   T   T
  0.4566940333480107  0.4694077262701294  0.5000000000000000   T   T   T
  0.4451014050877012  0.5511356304899938  0.5000000000000000   T   T   T
  0.4102359442165824  0.4926624981684807  0.5000009999999975   T   T   T
  0.5218498415741174  0.5593670302753833  0.5000000000000000   T   T   T
  0.5735214905699139  0.5252113159388174  0.5000000000000000   T   T   T
  0.5709937844262065  0.4637101936147769  0.5000000000000000   T   T   T
  0.5161036086155968  0.4339952915641552  0.5000000000000000   T   T   T
 
  0.00000000E+00  0.00000000E+00  0.00000000E+00
  0.00000000E+00  0.00000000E+00  0.00000000E+00
  0.00000000E+00  0.00000000E+00  0.00000000E+00
  0.00000000E+00  0.00000000E+00  0.00000000E+00
  0.00000000E+00  0.00000000E+00  0.00000000E+00
  0.00000000E+00  0.00000000E+00  0.00000000E+00
  0.00000000E+00  0.00000000E+00  0.00000000E+00
  0.00000000E+00  0.00000000E+00  0.00000000E+00
  0.00000000E+00  0.00000000E+00  0.00000000E+00
  0.00000000E+00  0.00000000E+00  0.00000000E+00
  0.00000000E+00  0.00000000E+00  0.00000000E+00
  0.00000000E+00  0.00000000E+00  0.00000000E+00
  0.00000000E+00  0.00000000E+00  0.00000000E+00
  0.00000000E+00  0.00000000E+00  0.00000000E+00
  0.00000000E+00  0.00000000E+00  0.00000000E+00
