C H                                     
   1.00000000000000     
    40.0000000000000000    0.0000000000000000    0.0000000000000000
     0.0000000000000000   40.0000000000000000    0.0000000000000000
     0.0000000000000000    0.0000000000000000   40.0000000000000000
   C    H 
    10    12
Selective dynamics
Direct
  0.5270216571414892  0.4681839410000848  0.5000049167855565   T   T   T
  0.5359391701030418  0.5029813880457183  0.5000037126683523   T   T   T
  0.5099830542255148  0.5272369139760471  0.5000015859334752   T   T   T
  0.4765907279060286  0.5184307712166358  0.4999997683007393   T   T   T
  0.4681066972301693  0.4833705938035635  0.5000007462000511   T   T   T
  0.4939458215199863  0.4590455471777446  0.5000050856360261   T   T   T
  0.4326048727450953  0.4727597872171927  0.4999997519848520   T   T   T
  0.4498032532685343  0.5444582040533987  0.4999974792254847   T   T   T
  0.5698104758201197  0.5143714887700739  0.5000024723843239   T   T   T
  0.5976312503293357  0.4944031622680498  0.4999949196951192   T   T   T
  0.4870778746897884  0.4326768897308924  0.5000076241135929   T   T   T
  0.4298204082313077  0.4455504489969471  0.5000016879808769   T   T   T
  0.4193873822065228  0.4831383021226543  0.4781290808739627   T   T   T
  0.4193838563730807  0.4831417297653289  0.5218667751305546   T   T   T
  0.4335245671687531  0.5419137995825665  0.5220338127017854   T   T   T
  0.4335232442567758  0.5419092544486048  0.4779629188188892   T   T   T
  0.4604577346261820  0.5696730987600489  0.4999948099537690   T   T   T
  0.5169136581947811  0.5536140203020992  0.5000010082831707   T   T   T
  0.5962451362489176  0.4672073189580459  0.4999843976439493   T   T   T
  0.6225021283934780  0.5054727696269268  0.4999920522295653   T   T   T
  0.5733928514628914  0.5414559087745019  0.5000084805737117   T   T   T
  0.5463331778582017  0.4490056614028930  0.5000069128821849   T   T   T
 
  0.00000000E+00  0.00000000E+00  0.00000000E+00
  0.00000000E+00  0.00000000E+00  0.00000000E+00
  0.00000000E+00  0.00000000E+00  0.00000000E+00
  0.00000000E+00  0.00000000E+00  0.00000000E+00
  0.00000000E+00  0.00000000E+00  0.00000000E+00
  0.00000000E+00  0.00000000E+00  0.00000000E+00
  0.00000000E+00  0.00000000E+00  0.00000000E+00
  0.00000000E+00  0.00000000E+00  0.00000000E+00
  0.00000000E+00  0.00000000E+00  0.00000000E+00
  0.00000000E+00  0.00000000E+00  0.00000000E+00
  0.00000000E+00  0.00000000E+00  0.00000000E+00
  0.00000000E+00  0.00000000E+00  0.00000000E+00
  0.00000000E+00  0.00000000E+00  0.00000000E+00
  0.00000000E+00  0.00000000E+00  0.00000000E+00
  0.00000000E+00  0.00000000E+00  0.00000000E+00
  0.00000000E+00  0.00000000E+00  0.00000000E+00
  0.00000000E+00  0.00000000E+00  0.00000000E+00
  0.00000000E+00  0.00000000E+00  0.00000000E+00
  0.00000000E+00  0.00000000E+00  0.00000000E+00
  0.00000000E+00  0.00000000E+00  0.00000000E+00
  0.00000000E+00  0.00000000E+00  0.00000000E+00
  0.00000000E+00  0.00000000E+00  0.00000000E+00
