C O H                                   
   1.00000000000000     
    40.0000000000000000    0.0000000000000000    0.0000000000000000
     0.0000000000000000   40.0000000000000000    0.0000000000000000
     0.0000000000000000    0.0000000000000000   40.0000000000000000
   C    O    H 
     8     1     6
Selective dynamics
Direct
  0.5167559697599444  0.4608009867448319  0.5000000000000000   T   T   T
  0.5475494848071110  0.4783617121971478  0.5000000000000000   T   T   T
  0.5493238254080282  0.5134825088791043  0.5000000000000000   T   T   T
  0.5207349968365081  0.5327047886229640  0.5000000000000000   T   T   T
  0.4894376994090794  0.5158093282545768  0.5000000000000000   T   T   T
  0.4889899271592239  0.4803516731403943  0.5000000000000000   T   T   T
  0.4370411213114556  0.4965631396421373  0.5000000000000000   T   T   T
  0.4561198647773259  0.5260627582534211  0.5000000000000000   T   T   T
  0.4560301285956198  0.4692390193200201  0.5000000000000000   T   T   T
  0.4460822481408346  0.5510879773978794  0.5000000000000000   T   T   T
  0.4103642612410277  0.4926148463046137  0.5000009999999975   T   T   T
  0.5217153038463525  0.5597406556130312  0.5000000000000000   T   T   T
  0.5736083882922494  0.5253709593981095  0.5000000000000000   T   T   T
  0.5705000057260107  0.4640206250751022  0.5000000000000000   T   T   T
  0.5157457746892169  0.4337880211566828  0.5000000000000000   T   T   T
 
  0.00000000E+00  0.00000000E+00  0.00000000E+00
  0.00000000E+00  0.00000000E+00  0.00000000E+00
  0.00000000E+00  0.00000000E+00  0.00000000E+00
  0.00000000E+00  0.00000000E+00  0.00000000E+00
  0.00000000E+00  0.00000000E+00  0.00000000E+00
  0.00000000E+00  0.00000000E+00  0.00000000E+00
  0.00000000E+00  0.00000000E+00  0.00000000E+00
  0.00000000E+00  0.00000000E+00  0.00000000E+00
  0.00000000E+00  0.00000000E+00  0.00000000E+00
  0.00000000E+00  0.00000000E+00  0.00000000E+00
  0.00000000E+00  0.00000000E+00  0.00000000E+00
  0.00000000E+00  0.00000000E+00  0.00000000E+00
  0.00000000E+00  0.00000000E+00  0.00000000E+00
  0.00000000E+00  0.00000000E+00  0.00000000E+00
  0.00000000E+00  0.00000000E+00  0.00000000E+00
