C N H                                   
   1.00000000000000     
    40.0000000000000000    0.0000000000000000    0.0000000000000000
     0.0000000000000000   40.0000000000000000    0.0000000000000000
     0.0000000000000000    0.0000000000000000   40.0000000000000000
   C    N    H 
     9     1     7
Selective dynamics
Direct
  0.5289785410857135  0.4682239818838880  0.5000000000000000   T   T   T
  0.5592987243236180  0.4864407761140299  0.5000000000000000   T   T   T
  0.5587734341716768  0.5211749317288508  0.5000000000000000   T   T   T
  0.5280064136410019  0.5384031047811817  0.5000000000000000   T   T   T
  0.4970857851080268  0.5206220780754762  0.5000000000000000   T   T   T
  0.4394373530184339  0.5214535041716246  0.5000000000000000   T   T   T
  0.4374109603889806  0.4864257114575565  0.5000000000000000   T   T   T
  0.4669499089268712  0.4677415013557820  0.5000000000000000   T   T   T
  0.4977021678615472  0.4849235720920646  0.5000000000000000   T   T   T
  0.4683725088807407  0.5385476852965496  0.5000000000000000   T   T   T
  0.4664559808778606  0.4404903285783703  0.5000000000000000   T   T   T
  0.4131165036194915  0.4741548191982403  0.5000000000000000   T   T   T
  0.4166533011878926  0.5364840831100111  0.5000000000000000   T   T   T
  0.5272616975812667  0.5656460512390922  0.5000000000000000   T   T   T
  0.5820304744289970  0.5353182361283260  0.5000000000000000   T   T   T
  0.5829575742026307  0.4729861495951582  0.5000000000000000   T   T   T
  0.5295096706952620  0.4409624851938148  0.5000000000000000   T   T   T
 
  0.00000000E+00  0.00000000E+00  0.00000000E+00
  0.00000000E+00  0.00000000E+00  0.00000000E+00
  0.00000000E+00  0.00000000E+00  0.00000000E+00
  0.00000000E+00  0.00000000E+00  0.00000000E+00
  0.00000000E+00  0.00000000E+00  0.00000000E+00
  0.00000000E+00  0.00000000E+00  0.00000000E+00
  0.00000000E+00  0.00000000E+00  0.00000000E+00
  0.00000000E+00  0.00000000E+00  0.00000000E+00
  0.00000000E+00  0.00000000E+00  0.00000000E+00
  0.00000000E+00  0.00000000E+00  0.00000000E+00
  0.00000000E+00  0.00000000E+00  0.00000000E+00
  0.00000000E+00  0.00000000E+00  0.00000000E+00
  0.00000000E+00  0.00000000E+00  0.00000000E+00
  0.00000000E+00  0.00000000E+00  0.00000000E+00
  0.00000000E+00  0.00000000E+00  0.00000000E+00
  0.00000000E+00  0.00000000E+00  0.00000000E+00
  0.00000000E+00  0.00000000E+00  0.00000000E+00
