!B3LYP aug-cc-pVTZ d3 TightSCF SlowConv RIJCOSX defgrid2
 
%pal
nprocs 4
end
 
%scf
MaxIter 1500
end
 
%maxcore 3000
 
!CPCM
%cpcm smd true
SMDsolvent "MeCN"
surfacetype gepol_ses
rsolv 2.19
end 
 
* xyz 0 1
C           2.39749463161436     -0.83149819893554      0.67669387485363
C           1.27172397639116     -0.40047992295486     -0.03969915484816
C           1.38259238776027      0.76303550152059     -0.81642324820039
C           2.58576374302039      1.45963699946448     -0.89073073539891
C           3.70030483512470      1.01412413753758     -0.17987702815859
C           3.60056124987950     -0.13306932613824      0.60654243714533
H           4.46466138277505     -0.48209902986176      1.17996120108222
H           4.64383968195764      1.56540648474814     -0.23276704782048
H           2.65415437190379      2.35888092106518     -1.51038356423303
H           0.51264382726920      1.11680700092055     -1.37721808377949
C          -0.00001123541006     -1.16417502511622     -0.00002273576044
C          -0.00001884782649     -2.50996676952303     -0.00003277235160
H          -0.93225135885572     -3.07886784376654      0.08064455143521
H           0.93220419630722     -3.07888213761201     -0.08071574786352
C          -1.27174210287451     -0.40047320911747      0.03966757754902
C          -2.39750985071673     -0.83146289450512     -0.67674719863415
C          -3.60057439169967     -0.13303092760862     -0.60657919634084
C          -3.70031659242385      1.01413981080717      0.17987332068473
C          -2.58577653905984      1.45962201354211      0.89074922577948
C          -1.38260956202413      0.76301589591316      0.81642903255360
H          -0.51266418903044      1.11676009652396      1.37724534040847
H          -2.65416367308445      2.35884547498639      1.51043035509866
H          -4.64384894904450      1.56542539828851      0.23277593005599
H          -4.46467229568686     -0.48204204645132     -1.18001194866167
H          -2.31694066862491     -1.71619568559047     -1.31480317865473
H           2.31692587235889     -1.71625071813661      1.31472229405965
*
