C H                                     
   1.00000000000000     
    40.0000000000000000    0.0000000000000000    0.0000000000000000
     0.0000000000000000   40.0000000000000000    0.0000000000000000
     0.0000000000000000    0.0000000000000000   40.0000000000000000
   C    H 
    14    12
Selective dynamics
Direct
  0.5600290903868548  0.4794989431106877  0.5169667991872955   T   T   T
  0.5318178611237225  0.4903274325991910  0.4989820390899536   T   T   T
  0.5345862866163019  0.5195273552273586  0.4795175322124203   T   T   T
  0.5647451902034358  0.5370011472894943  0.4776521146902574   T   T   T
  0.5926862903566855  0.5258257447855182  0.4954991917001262   T   T   T
  0.5901781244640253  0.4970274316839086  0.5152069464341710   T   T   T
  0.5000000000000000  0.4711808073397827  0.5000000000000000   T   T   T
  0.5000000000000000  0.4374194610298760  0.4999990000000025   T   T   T
  0.4681821388762774  0.4903274325991910  0.5010179609100464   T   T   T
  0.4399709096131453  0.4794999431106923  0.4830332008127045   T   T   T
  0.4098218755359747  0.4970284316839061  0.4847930535658291   T   T   T
  0.4073137096433144  0.5258267447855157  0.5045008082998738   T   T   T
  0.4352548097965641  0.5370011472894943  0.5223488853097543   T   T   T
  0.4654137133836982  0.5195273552273586  0.5204834677875843   T   T   T
  0.6117082830204350  0.4883708184061125  0.5295545093386222   T   T   T
  0.6161999412514652  0.5396007011053293  0.4942159832671100   T   T   T
  0.5664302038852059  0.5594399890398430  0.4622184340663183   T   T   T
  0.5129230960512909  0.5284162854945518  0.4655173221070044   T   T   T
  0.4767863495825185  0.4232351160459817  0.5018659449571347   T   T   T
  0.5232126504174841  0.4232341160459771  0.4981320550428633   T   T   T
  0.4870769039487091  0.5284152854945543  0.5344836778929931   T   T   T
  0.4335697961147940  0.5594389890398456  0.5377835659336837   T   T   T
  0.3838000587485350  0.5396017011053339  0.5057850167328873   T   T   T
  0.3882917169795650  0.4883718184061099  0.4704444906613803   T   T   T
  0.4419427047334356  0.4574274010271975  0.4671146132864246   T   T   T
  0.5580572952665644  0.4574264010272001  0.5328833867135734   T   T   T
 
  0.00000000E+00  0.00000000E+00  0.00000000E+00
  0.00000000E+00  0.00000000E+00  0.00000000E+00
  0.00000000E+00  0.00000000E+00  0.00000000E+00
  0.00000000E+00  0.00000000E+00  0.00000000E+00
  0.00000000E+00  0.00000000E+00  0.00000000E+00
  0.00000000E+00  0.00000000E+00  0.00000000E+00
  0.00000000E+00  0.00000000E+00  0.00000000E+00
  0.00000000E+00  0.00000000E+00  0.00000000E+00
  0.00000000E+00  0.00000000E+00  0.00000000E+00
  0.00000000E+00  0.00000000E+00  0.00000000E+00
  0.00000000E+00  0.00000000E+00  0.00000000E+00
  0.00000000E+00  0.00000000E+00  0.00000000E+00
  0.00000000E+00  0.00000000E+00  0.00000000E+00
  0.00000000E+00  0.00000000E+00  0.00000000E+00
  0.00000000E+00  0.00000000E+00  0.00000000E+00
  0.00000000E+00  0.00000000E+00  0.00000000E+00
  0.00000000E+00  0.00000000E+00  0.00000000E+00
  0.00000000E+00  0.00000000E+00  0.00000000E+00
  0.00000000E+00  0.00000000E+00  0.00000000E+00
  0.00000000E+00  0.00000000E+00  0.00000000E+00
  0.00000000E+00  0.00000000E+00  0.00000000E+00
  0.00000000E+00  0.00000000E+00  0.00000000E+00
  0.00000000E+00  0.00000000E+00  0.00000000E+00
  0.00000000E+00  0.00000000E+00  0.00000000E+00
  0.00000000E+00  0.00000000E+00  0.00000000E+00
  0.00000000E+00  0.00000000E+00  0.00000000E+00
