C H                                     
   1.00000000000000     
    40.0000000000000000    0.0000000000000000    0.0000000000000000
     0.0000000000000000   40.0000000000000000    0.0000000000000000
     0.0000000000000000    0.0000000000000000   40.0000000000000000
   C    H 
     9    12
Selective dynamics
Direct
  0.4736186295299090  0.4775849085672770  0.4999622866241696   T   T   T
  0.5062297295857339  0.4655082516849396  0.4999539509361587   T   T   T
  0.5133916558712400  0.4286267939424578  0.5000450935390376   T   T   T
  0.5325926845113073  0.4884940717973522  0.4999289907588110   T   T   T
  0.5267479458908334  0.5227644330990409  0.4998829588252069   T   T   T
  0.5552897618133784  0.5471986706759187  0.5000064163797103   T   T   T
  0.4936525474721821  0.5341553690795715  0.4998497505958495   T   T   T
  0.4668828935646011  0.5119275704417768  0.4999326603440419   T   T   T
  0.4313277557463608  0.5241006028466096  0.5000291385955909   T   T   T
  0.4904123452116602  0.4139719485277581  0.4992198870846104   T   T   T
  0.5272442004416703  0.4213972152340978  0.5224842417643583   T   T   T
  0.5287729607999646  0.4215545644675748  0.4785837812344317   T   T   T
  0.5792953349698760  0.5343712104428041  0.4983582409452469   T   T   T
  0.5535000437015412  0.5646319264021501  0.4790305099844305   T   T   T
  0.5553082934916086  0.5622108134386473  0.5228658269028528   T   T   T
  0.4174897084172478  0.5141601469142348  0.4786544340755478   T   T   T
  0.4300584081247074  0.5513110952508000  0.4990549640839697   T   T   T
  0.4182278567605032  0.5158139380427277  0.5225505757316939   T   T   T
  0.4888246367155692  0.5609104042345948  0.4997563516169193   T   T   T
  0.5582003202332950  0.4793626105128788  0.4999149477461723   T   T   T
  0.4529322871467975  0.4599434543967870  0.4999349922311893   T   T   T
 
  0.00000000E+00  0.00000000E+00  0.00000000E+00
  0.00000000E+00  0.00000000E+00  0.00000000E+00
  0.00000000E+00  0.00000000E+00  0.00000000E+00
  0.00000000E+00  0.00000000E+00  0.00000000E+00
  0.00000000E+00  0.00000000E+00  0.00000000E+00
  0.00000000E+00  0.00000000E+00  0.00000000E+00
  0.00000000E+00  0.00000000E+00  0.00000000E+00
  0.00000000E+00  0.00000000E+00  0.00000000E+00
  0.00000000E+00  0.00000000E+00  0.00000000E+00
  0.00000000E+00  0.00000000E+00  0.00000000E+00
  0.00000000E+00  0.00000000E+00  0.00000000E+00
  0.00000000E+00  0.00000000E+00  0.00000000E+00
  0.00000000E+00  0.00000000E+00  0.00000000E+00
  0.00000000E+00  0.00000000E+00  0.00000000E+00
  0.00000000E+00  0.00000000E+00  0.00000000E+00
  0.00000000E+00  0.00000000E+00  0.00000000E+00
  0.00000000E+00  0.00000000E+00  0.00000000E+00
  0.00000000E+00  0.00000000E+00  0.00000000E+00
  0.00000000E+00  0.00000000E+00  0.00000000E+00
  0.00000000E+00  0.00000000E+00  0.00000000E+00
  0.00000000E+00  0.00000000E+00  0.00000000E+00
