C N H                                   
   1.00000000000000     
    40.0000000000000000    0.0000000000000000    0.0000000000000000
     0.0000000000000000   40.0000000000000000    0.0000000000000000
     0.0000000000000000    0.0000000000000000   40.0000000000000000
   C    N    H 
     8     1    11
Selective dynamics
Direct
  0.4801756765696084  0.5308070663550097  0.5001064988024169   T   T   T
  0.4456151022750277  0.5304513243907181  0.5003249795976430   T   T   T
  0.4280325875491116  0.5000017941377237  0.5004396125309043   T   T   T
  0.4456130827837370  0.4695520228717385  0.5003180904925557   T   T   T
  0.4801744918117450  0.4691932089580533  0.5001018307865905   T   T   T
  0.4983038647279585  0.5000001497247979  0.4999868607751523   T   T   T
  0.5512216609358234  0.5313176079873472  0.4996990857780759   T   T   T
  0.5512197564385488  0.4686793888005099  0.4997093098483703   T   T   T
  0.5323728278089490  0.4999991103342936  0.4997771932899440   T   T   T
  0.5778897870961757  0.5256258535275151  0.4994900579433477   T   T   T
  0.5448919267609185  0.5460939197592651  0.4774349134888425   T   T   T
  0.5452228377691526  0.5459726018026672  0.5221375261147756   T   T   T
  0.5778892955855071  0.4743697785443430  0.4995159398138398   T   T   T
  0.5452063140539565  0.4540225743649273  0.5221413498453984   T   T   T
  0.5449031989395507  0.4539062359564028  0.4774391853198523   T   T   T
  0.4932783920119377  0.4453842299637358  0.5000038465422918   T   T   T
  0.4319592177707747  0.4459864749675049  0.5003856815511156   T   T   T
  0.4007877954421204  0.5000026431880968  0.5005754828223843   T   T   T
  0.4319620304979139  0.5540172007200326  0.5003977688744072   T   T   T
  0.4932811531714663  0.5546158136453272  0.5000157857820966   T   T   T
 
  0.00000000E+00  0.00000000E+00  0.00000000E+00
  0.00000000E+00  0.00000000E+00  0.00000000E+00
  0.00000000E+00  0.00000000E+00  0.00000000E+00
  0.00000000E+00  0.00000000E+00  0.00000000E+00
  0.00000000E+00  0.00000000E+00  0.00000000E+00
  0.00000000E+00  0.00000000E+00  0.00000000E+00
  0.00000000E+00  0.00000000E+00  0.00000000E+00
  0.00000000E+00  0.00000000E+00  0.00000000E+00
  0.00000000E+00  0.00000000E+00  0.00000000E+00
  0.00000000E+00  0.00000000E+00  0.00000000E+00
  0.00000000E+00  0.00000000E+00  0.00000000E+00
  0.00000000E+00  0.00000000E+00  0.00000000E+00
  0.00000000E+00  0.00000000E+00  0.00000000E+00
  0.00000000E+00  0.00000000E+00  0.00000000E+00
  0.00000000E+00  0.00000000E+00  0.00000000E+00
  0.00000000E+00  0.00000000E+00  0.00000000E+00
  0.00000000E+00  0.00000000E+00  0.00000000E+00
  0.00000000E+00  0.00000000E+00  0.00000000E+00
  0.00000000E+00  0.00000000E+00  0.00000000E+00
  0.00000000E+00  0.00000000E+00  0.00000000E+00
