C H                                     
   1.00000000000000     
    40.0000000000000000    0.0000000000000000    0.0000000000000000
     0.0000000000000000   40.0000000000000000    0.0000000000000000
     0.0000000000000000    0.0000000000000000   40.0000000000000000
   C    H 
    12    14
Selective dynamics
Direct
  0.5478652257182074  0.4696733852616484  0.4920542530289334   T   T   T
  0.5825959293605730  0.4701852023997726  0.4924560068902573   T   T   T
  0.5997015718604380  0.4993104152219238  0.5010478283528997   T   T   T
  0.5815980879205305  0.5279269139406281  0.5090585587549675   T   T   T
  0.5468059493929879  0.5274299829965847  0.5085503845086371   T   T   T
  0.5291762663080624  0.4982110654678633  0.5003898037230846   T   T   T
  0.4922079661657313  0.4978880119464402  0.5004220943725396   T   T   T
  0.4749115888499874  0.4698813733458633  0.5071821299620111   T   T   T
  0.4375357822837063  0.4676349491993119  0.5081336909349768   T   T   T
  0.4206637290121695  0.5018942181705998  0.5083541235830376   T   T   T
  0.4377934834794669  0.5251633108038843  0.4834896676510296   T   T   T
  0.4743967497078201  0.5304032362260165  0.4929660130976377   T   T   T
  0.4876193856530845  0.5435263945020880  0.4728921361429574   T   T   T
  0.4758877044141623  0.5469169804225991  0.5148555958721001   T   T   T
  0.4250046322137384  0.5493001754916039  0.4823277835429670   T   T   T
  0.4364179002875321  0.5141135227174618  0.4584259237072850   T   T   T
  0.3940654177725912  0.4993299896095667  0.5025740347293882   T   T   T
  0.4224376024732197  0.5127629021550496  0.5334641066764704   T   T   T
  0.4289935495519513  0.4531561329293072  0.4863662490246898   T   T   T
  0.4298867148752381  0.4529662917860099  0.5299706809573120   T   T   T
  0.4884855455625954  0.4469939267719498  0.5127907890126163   T   T   T
  0.5332143886406495  0.5499767455610569  0.5149945048785954   T   T   T
  0.5945658992001940  0.5508016644418229  0.5157286657600270   T   T   T
  0.6267975261174673  0.4997168709275872  0.5012290732841459   T   T   T
  0.5963756601059589  0.4478248771314194  0.4856639904646532   T   T   T
  0.5349937430719622  0.4470104605719500  0.4846119110867738   T   T   T
 
  0.00000000E+00  0.00000000E+00  0.00000000E+00
  0.00000000E+00  0.00000000E+00  0.00000000E+00
  0.00000000E+00  0.00000000E+00  0.00000000E+00
  0.00000000E+00  0.00000000E+00  0.00000000E+00
  0.00000000E+00  0.00000000E+00  0.00000000E+00
  0.00000000E+00  0.00000000E+00  0.00000000E+00
  0.00000000E+00  0.00000000E+00  0.00000000E+00
  0.00000000E+00  0.00000000E+00  0.00000000E+00
  0.00000000E+00  0.00000000E+00  0.00000000E+00
  0.00000000E+00  0.00000000E+00  0.00000000E+00
  0.00000000E+00  0.00000000E+00  0.00000000E+00
  0.00000000E+00  0.00000000E+00  0.00000000E+00
  0.00000000E+00  0.00000000E+00  0.00000000E+00
  0.00000000E+00  0.00000000E+00  0.00000000E+00
  0.00000000E+00  0.00000000E+00  0.00000000E+00
  0.00000000E+00  0.00000000E+00  0.00000000E+00
  0.00000000E+00  0.00000000E+00  0.00000000E+00
  0.00000000E+00  0.00000000E+00  0.00000000E+00
  0.00000000E+00  0.00000000E+00  0.00000000E+00
  0.00000000E+00  0.00000000E+00  0.00000000E+00
  0.00000000E+00  0.00000000E+00  0.00000000E+00
  0.00000000E+00  0.00000000E+00  0.00000000E+00
  0.00000000E+00  0.00000000E+00  0.00000000E+00
  0.00000000E+00  0.00000000E+00  0.00000000E+00
  0.00000000E+00  0.00000000E+00  0.00000000E+00
  0.00000000E+00  0.00000000E+00  0.00000000E+00
