!PBE0 def2-SV(p) Opt Freq d3 TightSCF SlowConv RIJCOSX defgrid2

%pal
nprocs 15
end

%scf
MaxIter 1500
end

%maxcore 3500

 

* xyz 0 1
C        0.000000000      0.000000000      0.000000000
C        0.000000000      1.373319056      0.090541189
C        0.000000000      2.005801373      1.358202556
C        0.000000000      1.252280933      2.509901250
C        0.000000000     -0.167564122      2.452067234
C        0.000000000     -0.807631659      1.169203086
C        0.000000000     -2.227476714      1.111369070
C        0.000000000     -2.980997154      2.263067764
C        0.000000000     -2.348514836      3.530729131
C        0.000000000     -0.975195780      3.621270320
H        0.000000000     -0.487597890      4.592806506
H        0.000000000     -2.953782701      4.432518609
H        0.000000000     -4.065491075      2.204361841
H        0.000000000     -2.710489610      0.137545264
C        0.000000000      3.543550002      1.441444104
H       -1.020692000      3.941505213      1.471906292
H        0.518060000      3.894447577      2.341217560
H        0.502632000      3.990007252      0.575912090
C        0.000000000      2.231553308     -1.188143279
H        1.020692000      2.446529534     -1.524419232
H       -0.518060000      1.723670938     -2.009591316
H       -0.502632000      3.191575797     -1.024355113
O        0.000000000      1.892133153      3.799935799
O        0.000000000     -0.645926009     -1.287004115
*
