C N H                                   
   1.00000000000000     
    40.0000000000000000    0.0000000000000000    0.0000000000000000
     0.0000000000000000   40.0000000000000000    0.0000000000000000
     0.0000000000000000    0.0000000000000000   40.0000000000000000
   C    N    H 
     9     2    16
Selective dynamics
Direct
  0.5681084924051163  0.4769844246517039  0.5111028491187284   T   T   T
  0.5121196923991178  0.4792622011886252  0.4913571489055357   T   T   T
  0.4810810573032072  0.5329439984135433  0.4848181056191621   T   T   T
  0.4536133353697807  0.5288404861113207  0.5113568505117740   T   T   T
  0.4325368074852918  0.4972104818638527  0.5068215084057002   T   T   T
  0.4521662884144888  0.4643350017233274  0.5078240676301107   T   T   T
  0.4801827739917783  0.4614893988037636  0.4814573411546235   T   T   T
  0.5405822094260202  0.5321588922987601  0.5036125853183506   T   T   T
  0.5724255987264542  0.5123007726486790  0.4972050225268987   T   T   T
  0.5373195895649019  0.4605299478525424  0.5001480394422870   T   T   T
  0.5115870366105071  0.5136790164488332  0.4910339409503592   T   T   T
  0.4709523679332150  0.4706225830185247  0.4571303849170079   T   T   T
  0.4870403206898857  0.4351475976230290  0.4781648883187870   T   T   T
  0.4631321411719327  0.4606197743565090  0.5328565449196390   T   T   T
  0.4345238940892386  0.4435599210625654  0.5039464326741623   T   T   T
  0.4128419587432788  0.4965439271278953  0.5260643207015221   T   T   T
  0.4195291809448989  0.4989073859315027  0.4825164127495967   T   T   T
  0.4652761674158441  0.5292677452339234  0.5363394368461272   T   T   T
  0.4370472496128812  0.5508072398486945  0.5100011381897644   T   T   T
  0.4709084350868693  0.5267523208471374  0.4599334806357334   T   T   T
  0.4888130056230438  0.5592621165104248  0.4836040026756834   T   T   T
  0.5939236480660668  0.5249783339010463  0.5087518757843625   T   T   T
  0.5770569441234343  0.5110909864036373  0.4700820898927276   T   T   T
  0.5414811568982358  0.5564636649739043  0.4907847203389224   T   T   T
  0.5377565572589162  0.5372849967746589  0.5306482477840717   T   T   T
  0.5685584158572894  0.4777704131290861  0.5387502180750374   T   T   T
  0.5894346747883219  0.4611873712525068  0.5036883459133250   T   T   T
 
  0.00000000E+00  0.00000000E+00  0.00000000E+00
  0.00000000E+00  0.00000000E+00  0.00000000E+00
  0.00000000E+00  0.00000000E+00  0.00000000E+00
  0.00000000E+00  0.00000000E+00  0.00000000E+00
  0.00000000E+00  0.00000000E+00  0.00000000E+00
  0.00000000E+00  0.00000000E+00  0.00000000E+00
  0.00000000E+00  0.00000000E+00  0.00000000E+00
  0.00000000E+00  0.00000000E+00  0.00000000E+00
  0.00000000E+00  0.00000000E+00  0.00000000E+00
  0.00000000E+00  0.00000000E+00  0.00000000E+00
  0.00000000E+00  0.00000000E+00  0.00000000E+00
  0.00000000E+00  0.00000000E+00  0.00000000E+00
  0.00000000E+00  0.00000000E+00  0.00000000E+00
  0.00000000E+00  0.00000000E+00  0.00000000E+00
  0.00000000E+00  0.00000000E+00  0.00000000E+00
  0.00000000E+00  0.00000000E+00  0.00000000E+00
  0.00000000E+00  0.00000000E+00  0.00000000E+00
  0.00000000E+00  0.00000000E+00  0.00000000E+00
  0.00000000E+00  0.00000000E+00  0.00000000E+00
  0.00000000E+00  0.00000000E+00  0.00000000E+00
  0.00000000E+00  0.00000000E+00  0.00000000E+00
  0.00000000E+00  0.00000000E+00  0.00000000E+00
  0.00000000E+00  0.00000000E+00  0.00000000E+00
  0.00000000E+00  0.00000000E+00  0.00000000E+00
  0.00000000E+00  0.00000000E+00  0.00000000E+00
  0.00000000E+00  0.00000000E+00  0.00000000E+00
  0.00000000E+00  0.00000000E+00  0.00000000E+00
