C H                                     
   1.00000000000000     
    40.0000000000000000    0.0000000000000000    0.0000000000000000
     0.0000000000000000   40.0000000000000000    0.0000000000000000
     0.0000000000000000    0.0000000000000000   40.0000000000000000
   C    H 
    10    12
Selective dynamics
Direct
  0.4947678603784123  0.4749688281197803  0.5000873361974267   T   T   T
  0.4603653301082643  0.4708822896124734  0.5001656065712901   T   T   T
  0.4386619208656830  0.4983953206534837  0.5001861589967561   T   T   T
  0.4528955788271207  0.5302329945457107  0.5002019010787085   T   T   T
  0.4874105787933433  0.5344664561243458  0.5001121545373474   T   T   T
  0.5092020117464074  0.5070185972898373  0.5000442970283530   T   T   T
  0.5453127940731037  0.5130182434021806  0.5000177288697421   T   T   T
  0.5697776054872060  0.4901232594777899  0.5000330615020044   T   T   T
  0.6061997985611003  0.4981613031599501  0.4999708726182602   T   T   T
  0.4014386945794690  0.4935066304464699  0.4997809153261150   T   T   T
  0.6186164459319345  0.4873536884168597  0.5218595658448537   T   T   T
  0.6185512988096092  0.4872706685758512  0.4780859965092911   T   T   T
  0.6106453137500060  0.5250892779336683  0.4999109691044084   T   T   T
  0.5635105362794286  0.4636398530790898  0.5000886682817279   T   T   T
  0.5524808315710397  0.5393158979322281  0.4999675216401084   T   T   T
  0.4977866572013520  0.5595595429766149  0.5001681410261991   T   T   T
  0.4367744884509538  0.5520732753672556  0.5003205900562445   T   T   T
  0.3883012759046541  0.5168269454077397  0.5050354394027388   T   T   T
  0.3930399758013571  0.4844930335840788  0.4753342836846405   T   T   T
  0.3937170834413420  0.4748683625613944  0.5182136381069297   T   T   T
  0.4499611138784765  0.4457945746425938  0.5002738977504108   T   T   T
  0.5105828055597293  0.4529419566906082  0.5001422558664128   T   T   T
 
  0.00000000E+00  0.00000000E+00  0.00000000E+00
  0.00000000E+00  0.00000000E+00  0.00000000E+00
  0.00000000E+00  0.00000000E+00  0.00000000E+00
  0.00000000E+00  0.00000000E+00  0.00000000E+00
  0.00000000E+00  0.00000000E+00  0.00000000E+00
  0.00000000E+00  0.00000000E+00  0.00000000E+00
  0.00000000E+00  0.00000000E+00  0.00000000E+00
  0.00000000E+00  0.00000000E+00  0.00000000E+00
  0.00000000E+00  0.00000000E+00  0.00000000E+00
  0.00000000E+00  0.00000000E+00  0.00000000E+00
  0.00000000E+00  0.00000000E+00  0.00000000E+00
  0.00000000E+00  0.00000000E+00  0.00000000E+00
  0.00000000E+00  0.00000000E+00  0.00000000E+00
  0.00000000E+00  0.00000000E+00  0.00000000E+00
  0.00000000E+00  0.00000000E+00  0.00000000E+00
  0.00000000E+00  0.00000000E+00  0.00000000E+00
  0.00000000E+00  0.00000000E+00  0.00000000E+00
  0.00000000E+00  0.00000000E+00  0.00000000E+00
  0.00000000E+00  0.00000000E+00  0.00000000E+00
  0.00000000E+00  0.00000000E+00  0.00000000E+00
  0.00000000E+00  0.00000000E+00  0.00000000E+00
  0.00000000E+00  0.00000000E+00  0.00000000E+00
