C O H                                   
   1.00000000000000     
    40.0000000000000000    0.0000000000000000    0.0000000000000000
     0.0000000000000000   40.0000000000000000    0.0000000000000000
     0.0000000000000000    0.0000000000000000   40.0000000000000000
   C    O    H 
     8     1     6
Selective dynamics
Direct
  0.5175737928290096  0.4608653008924932  0.5000000000000000   T   T   T
  0.5481241206295067  0.4778555711896036  0.5000000000000000   T   T   T
  0.5495010522044185  0.5130806322533379  0.5000000000000000   T   T   T
  0.5204962650671257  0.5324573535711280  0.5000000000000000   T   T   T
  0.4894484395096849  0.5159695935383317  0.5000000000000000   T   T   T
  0.4890142979558235  0.4806725061083904  0.5000000000000000   T   T   T
  0.4365026658086972  0.4974804469715070  0.5000000000000000   T   T   T
  0.4548525359724821  0.5261335085626060  0.5000000000000000   T   T   T
  0.4564997065592269  0.4692024162081931  0.5000000000000000   T   T   T
  0.4449584799259612  0.5514174590236126  0.5000000000000000   T   T   T
  0.4098145665786029  0.4926153334693860  0.5000009999999975   T   T   T
  0.5218933236031620  0.5596934932081665  0.5000000000000000   T   T   T
  0.5738546335401022  0.5253665989217100  0.5000000000000000   T   T   T
  0.5713280594382698  0.4635290666085022  0.5000000000000000   T   T   T
  0.5161370603779150  0.4336597194730271  0.5000000000000000   T   T   T
 
  0.00000000E+00  0.00000000E+00  0.00000000E+00
  0.00000000E+00  0.00000000E+00  0.00000000E+00
  0.00000000E+00  0.00000000E+00  0.00000000E+00
  0.00000000E+00  0.00000000E+00  0.00000000E+00
  0.00000000E+00  0.00000000E+00  0.00000000E+00
  0.00000000E+00  0.00000000E+00  0.00000000E+00
  0.00000000E+00  0.00000000E+00  0.00000000E+00
  0.00000000E+00  0.00000000E+00  0.00000000E+00
  0.00000000E+00  0.00000000E+00  0.00000000E+00
  0.00000000E+00  0.00000000E+00  0.00000000E+00
  0.00000000E+00  0.00000000E+00  0.00000000E+00
  0.00000000E+00  0.00000000E+00  0.00000000E+00
  0.00000000E+00  0.00000000E+00  0.00000000E+00
  0.00000000E+00  0.00000000E+00  0.00000000E+00
  0.00000000E+00  0.00000000E+00  0.00000000E+00
