C N O H                                 
   1.00000000000000     
    40.0000000000000000    0.0000000000000000    0.0000000000000000
     0.0000000000000000   40.0000000000000000    0.0000000000000000
     0.0000000000000000    0.0000000000000000   40.0000000000000000
   C    N    O    H 
    10     1     1    13
Selective dynamics
Direct
  0.4661362804371856  0.5306670469575733  0.5029383129679738   T   T   T
  0.4328423633620031  0.5332872694611603  0.4939034920215657   T   T   T
  0.4129607419121187  0.5045609702706572  0.4904075033837298   T   T   T
  0.4268046736395655  0.4728733693739515  0.4963439869045984   T   T   T
  0.4601180670160596  0.4696561609574145  0.5050475958345950   T   T   T
  0.4806757918094403  0.4985913956996192  0.5081396321545175   T   T   T
  0.5332742709912041  0.4654862984048975  0.5080383283456619   T   T   T
  0.5564365794325578  0.4743972209171943  0.4780759333148896   T   T   T
  0.5591998036857329  0.5305902930176967  0.4948085796995022   T   T   T
  0.5356461454320532  0.5231536690542509  0.5247199515151474   T   T   T
  0.5139819970808019  0.4952640802107717  0.5161131526271017   T   T   T
  0.5776543387412373  0.5014530028914473  0.4865465370918763   T   T   T
  0.5486602320601808  0.4584824492837226  0.5296551081410298   T   T   T
  0.5171942292251954  0.4446089418943468  0.5008944199212195   T   T   T
  0.5407698202070514  0.4804367204662868  0.4561415735554877   T   T   T
  0.5724472532824612  0.4529032431250263  0.4723749719940132   T   T   T
  0.5772684657113772  0.5499078067563891  0.5019446834477699   T   T   T
  0.5442526525630977  0.5393172968865658  0.4732775820091535   T   T   T
  0.5213044406524553  0.5452697471471610  0.5318293050326787   T   T   T
  0.5510298273564521  0.5154375500547266  0.5461383546526839   T   T   T
  0.4700082722756485  0.4449950806173101  0.5108072721206366   T   T   T
  0.4112577626224408  0.4505874548721018  0.4944956809433596   T   T   T
  0.3867651576051933  0.5068969131537596  0.4833452264174725   T   T   T
  0.4221915016688332  0.5579084695920598  0.4892163792520504   T   T   T
  0.4811163312296388  0.5532685489339136  0.5047974366513115   T   T   T
 
  0.00000000E+00  0.00000000E+00  0.00000000E+00
  0.00000000E+00  0.00000000E+00  0.00000000E+00
  0.00000000E+00  0.00000000E+00  0.00000000E+00
  0.00000000E+00  0.00000000E+00  0.00000000E+00
  0.00000000E+00  0.00000000E+00  0.00000000E+00
  0.00000000E+00  0.00000000E+00  0.00000000E+00
  0.00000000E+00  0.00000000E+00  0.00000000E+00
  0.00000000E+00  0.00000000E+00  0.00000000E+00
  0.00000000E+00  0.00000000E+00  0.00000000E+00
  0.00000000E+00  0.00000000E+00  0.00000000E+00
  0.00000000E+00  0.00000000E+00  0.00000000E+00
  0.00000000E+00  0.00000000E+00  0.00000000E+00
  0.00000000E+00  0.00000000E+00  0.00000000E+00
  0.00000000E+00  0.00000000E+00  0.00000000E+00
  0.00000000E+00  0.00000000E+00  0.00000000E+00
  0.00000000E+00  0.00000000E+00  0.00000000E+00
  0.00000000E+00  0.00000000E+00  0.00000000E+00
  0.00000000E+00  0.00000000E+00  0.00000000E+00
  0.00000000E+00  0.00000000E+00  0.00000000E+00
  0.00000000E+00  0.00000000E+00  0.00000000E+00
  0.00000000E+00  0.00000000E+00  0.00000000E+00
  0.00000000E+00  0.00000000E+00  0.00000000E+00
  0.00000000E+00  0.00000000E+00  0.00000000E+00
  0.00000000E+00  0.00000000E+00  0.00000000E+00
  0.00000000E+00  0.00000000E+00  0.00000000E+00
