C N O H                                 
   1.00000000000000     
    40.0000000000000000    0.0000000000000000    0.0000000000000000
     0.0000000000000000   40.0000000000000000    0.0000000000000000
     0.0000000000000000    0.0000000000000000   40.0000000000000000
   C    N    O    H 
     7     1     1     7
Selective dynamics
Direct
  0.5158374463046269  0.4686825884290218  0.5000000000000000   T   T   T
  0.5500627528508498  0.4746494423120675  0.5000000000000000   T   T   T
  0.5620105658239859  0.5072928719694061  0.5000000000000000   T   T   T
  0.5395079886306932  0.5339617573228358  0.5000000000000000   T   T   T
  0.5053681680662466  0.5281586010435301  0.5000000000000000   T   T   T
  0.4931070910273781  0.4952882939879212  0.5000000000000000   T   T   T
  0.4574895149002129  0.4877235869843763  0.5000000000000000   T   T   T
  0.4354712672109147  0.5109535586059764  0.5000000000000000   T   T   T
  0.4030703754544476  0.4974060621114884  0.5000009999999975   T   T   T
  0.3890624785903951  0.5170809619599821  0.5000009999999975   T   T   T
  0.4497947784521962  0.4615265089925067  0.5000000000000000   T   T   T
  0.4878540728686078  0.5488170186825403  0.5000000000000000   T   T   T
  0.5488104210280959  0.5594215606779306  0.5000000000000000   T   T   T
  0.5886978736743925  0.5120198182571937  0.4999990000000025   T   T   T
  0.5673727388975843  0.4538042930912041  0.4999990000000025   T   T   T
  0.5064834662193559  0.4432130755719980  0.5000000000000000   T   T   T
 
  0.00000000E+00  0.00000000E+00  0.00000000E+00
  0.00000000E+00  0.00000000E+00  0.00000000E+00
  0.00000000E+00  0.00000000E+00  0.00000000E+00
  0.00000000E+00  0.00000000E+00  0.00000000E+00
  0.00000000E+00  0.00000000E+00  0.00000000E+00
  0.00000000E+00  0.00000000E+00  0.00000000E+00
  0.00000000E+00  0.00000000E+00  0.00000000E+00
  0.00000000E+00  0.00000000E+00  0.00000000E+00
  0.00000000E+00  0.00000000E+00  0.00000000E+00
  0.00000000E+00  0.00000000E+00  0.00000000E+00
  0.00000000E+00  0.00000000E+00  0.00000000E+00
  0.00000000E+00  0.00000000E+00  0.00000000E+00
  0.00000000E+00  0.00000000E+00  0.00000000E+00
  0.00000000E+00  0.00000000E+00  0.00000000E+00
  0.00000000E+00  0.00000000E+00  0.00000000E+00
  0.00000000E+00  0.00000000E+00  0.00000000E+00
