C N H                                   
   1.00000000000000     
    40.0000000000000000    0.0000000000000000    0.0000000000000000
     0.0000000000000000   40.0000000000000000    0.0000000000000000
     0.0000000000000000    0.0000000000000000   40.0000000000000000
   C    N    H 
     5     1    11
Selective dynamics
Direct
  0.4656429994101978  0.5000009814343904  0.5039392012928783   T   T   T
  0.4842420442537238  0.4685643285236156  0.4926730910353434   T   T   T
  0.5206340649206641  0.4697564096258085  0.5039281206747563   T   T   T
  0.5206335961483525  0.5302429551922301  0.5039315479160343   T   T   T
  0.4842431997034882  0.5314362877825624  0.4926710284253172   T   T   T
  0.5367139622876205  0.5000005538328381  0.4910070860928054   T   T   T
  0.5611552859031745  0.5000002722030634  0.4977759777574003   T   T   T
  0.4722270664751673  0.5538729433367615  0.5027182179334355   T   T   T
  0.4835142795720344  0.5332248762207065  0.4653267247214175   T   T   T
  0.5343109207286657  0.5520012574996795  0.4946061008769877   T   T   T
  0.5213673228757176  0.5312030469263637  0.5315834013154175   T   T   T
  0.5343094575111623  0.4479992751708776  0.4945976818322685   T   T   T
  0.5213721835807094  0.4687918270317980  0.5315812608143797   T   T   T
  0.4722264555958802  0.4461298992007455  0.5027259923934103   T   T   T
  0.4835083286653329  0.4667717342118588  0.4653295124798633   T   T   T
  0.4400513948261671  0.5000013381347277  0.4942725970725464   T   T   T
  0.4638484375419252  0.5000030136719629  0.5313324573657241   T   T   T
 
  0.00000000E+00  0.00000000E+00  0.00000000E+00
  0.00000000E+00  0.00000000E+00  0.00000000E+00
  0.00000000E+00  0.00000000E+00  0.00000000E+00
  0.00000000E+00  0.00000000E+00  0.00000000E+00
  0.00000000E+00  0.00000000E+00  0.00000000E+00
  0.00000000E+00  0.00000000E+00  0.00000000E+00
  0.00000000E+00  0.00000000E+00  0.00000000E+00
  0.00000000E+00  0.00000000E+00  0.00000000E+00
  0.00000000E+00  0.00000000E+00  0.00000000E+00
  0.00000000E+00  0.00000000E+00  0.00000000E+00
  0.00000000E+00  0.00000000E+00  0.00000000E+00
  0.00000000E+00  0.00000000E+00  0.00000000E+00
  0.00000000E+00  0.00000000E+00  0.00000000E+00
  0.00000000E+00  0.00000000E+00  0.00000000E+00
  0.00000000E+00  0.00000000E+00  0.00000000E+00
  0.00000000E+00  0.00000000E+00  0.00000000E+00
  0.00000000E+00  0.00000000E+00  0.00000000E+00
