C N H                                   
   1.00000000000000     
    40.0000000000000000    0.0000000000000000    0.0000000000000000
     0.0000000000000000   40.0000000000000000    0.0000000000000000
     0.0000000000000000    0.0000000000000000   40.0000000000000000
   C    N    H 
     6     2     8
Selective dynamics
Direct
  0.4816186806730114  0.5348081141991818  0.5002694444583875   T   T   T
  0.4512777636400987  0.5174641944331559  0.5002747978862245   T   T   T
  0.4512758227458196  0.4825361262676430  0.4997277967666237   T   T   T
  0.4816184700783409  0.4651925194796768  0.4997328292903181   T   T   T
  0.5121727392014469  0.4822627532195069  0.5000995297197594   T   T   T
  0.5121745536043184  0.5177375186193427  0.4999027145627462   T   T   T
  0.5430390531940968  0.4655626157054931  0.4990641749378768   T   T   T
  0.5430401782889870  0.5344373607982585  0.5009327845534641   T   T   T
  0.5608885862296399  0.4761281153816680  0.5138537678425555   T   T   T
  0.5413749847961825  0.4406222805643759  0.5036247932214550   T   T   T
  0.5608899774765655  0.5238692302301419  0.4861448939124309   T   T   T
  0.5413778136276094  0.5593775558214356  0.4963737116742311   T   T   T
  0.4818210988505738  0.4378724403449990  0.4998467553102769   T   T   T
  0.4278033557158465  0.4686800471729617  0.4995831695602819   T   T   T
  0.4278048292888399  0.5313213295673032  0.5004153095526435   T   T   T
  0.4818220925886363  0.5621277981948699  0.5001525267507418   T   T   T
 
  0.00000000E+00  0.00000000E+00  0.00000000E+00
  0.00000000E+00  0.00000000E+00  0.00000000E+00
  0.00000000E+00  0.00000000E+00  0.00000000E+00
  0.00000000E+00  0.00000000E+00  0.00000000E+00
  0.00000000E+00  0.00000000E+00  0.00000000E+00
  0.00000000E+00  0.00000000E+00  0.00000000E+00
  0.00000000E+00  0.00000000E+00  0.00000000E+00
  0.00000000E+00  0.00000000E+00  0.00000000E+00
  0.00000000E+00  0.00000000E+00  0.00000000E+00
  0.00000000E+00  0.00000000E+00  0.00000000E+00
  0.00000000E+00  0.00000000E+00  0.00000000E+00
  0.00000000E+00  0.00000000E+00  0.00000000E+00
  0.00000000E+00  0.00000000E+00  0.00000000E+00
  0.00000000E+00  0.00000000E+00  0.00000000E+00
  0.00000000E+00  0.00000000E+00  0.00000000E+00
  0.00000000E+00  0.00000000E+00  0.00000000E+00
