C N H                                   
   1.00000000000000     
    40.0000000000000000    0.0000000000000000    0.0000000000000000
     0.0000000000000000   40.0000000000000000    0.0000000000000000
     0.0000000000000000    0.0000000000000000   40.0000000000000000
   C    N    H 
     9     2    16
Selective dynamics
Direct
  0.5678556586405996  0.4779330721879310  0.5130936528859291   T   T   T
  0.5107282155584809  0.4810367783690090  0.4936192366834182   T   T   T
  0.4809823467698795  0.5344552380987213  0.4872420999187547   T   T   T
  0.4529908969532483  0.5275460467671591  0.5123679968707107   T   T   T
  0.4321777586889478  0.4964206500060452  0.5050190744805313   T   T   T
  0.4513856719421956  0.4635410118826565  0.5064053740142026   T   T   T
  0.4809571759297618  0.4618975878110483  0.4817550998620194   T   T   T
  0.5421329347917588  0.5326795911916938  0.5017032439894954   T   T   T
  0.5724495452799642  0.5110864682884387  0.4951322781424913   T   T   T
  0.5350023092911810  0.4642318157746169  0.5087924369371181   T   T   T
  0.5114679057439173  0.5145227663481726  0.4928310621559686   T   T   T
  0.4732851254005048  0.4711676184327387  0.4571821372220973   T   T   T
  0.4891183315281606  0.4360780907677539  0.4787787159737679   T   T   T
  0.4606477225297498  0.4587296658055715  0.5317044437401296   T   T   T
  0.4344779202802539  0.4430141789434534  0.5002105313849305   T   T   T
  0.4114784684214353  0.4953472689761773  0.5228104176858014   T   T   T
  0.4208929723201510  0.4991039910482173  0.4801913274550244   T   T   T
  0.4636922847670292  0.5265477755855276  0.5375482887001999   T   T   T
  0.4366779350979101  0.5494422821590077  0.5117597070637131   T   T   T
  0.4724283315507876  0.5297808740304117  0.4616681494935202   T   T   T
  0.4888433836132517  0.5604541072487931  0.4886642969073194   T   T   T
  0.5949153652891817  0.5238177713671822  0.5038436792716969   T   T   T
  0.5750200558227998  0.5068790045427249  0.4682746571822784   T   T   T
  0.5424354136666469  0.5553368587351517  0.4865460882088012   T   T   T
  0.5403026537544331  0.5403457023134298  0.5279581783808355   T   T   T
  0.5719691607302565  0.4797510135353608  0.5402039795767398   T   T   T
  0.5856834556375371  0.4588537697830176  0.5046938458124977   T   T   T
 
  0.00000000E+00  0.00000000E+00  0.00000000E+00
  0.00000000E+00  0.00000000E+00  0.00000000E+00
  0.00000000E+00  0.00000000E+00  0.00000000E+00
  0.00000000E+00  0.00000000E+00  0.00000000E+00
  0.00000000E+00  0.00000000E+00  0.00000000E+00
  0.00000000E+00  0.00000000E+00  0.00000000E+00
  0.00000000E+00  0.00000000E+00  0.00000000E+00
  0.00000000E+00  0.00000000E+00  0.00000000E+00
  0.00000000E+00  0.00000000E+00  0.00000000E+00
  0.00000000E+00  0.00000000E+00  0.00000000E+00
  0.00000000E+00  0.00000000E+00  0.00000000E+00
  0.00000000E+00  0.00000000E+00  0.00000000E+00
  0.00000000E+00  0.00000000E+00  0.00000000E+00
  0.00000000E+00  0.00000000E+00  0.00000000E+00
  0.00000000E+00  0.00000000E+00  0.00000000E+00
  0.00000000E+00  0.00000000E+00  0.00000000E+00
  0.00000000E+00  0.00000000E+00  0.00000000E+00
  0.00000000E+00  0.00000000E+00  0.00000000E+00
  0.00000000E+00  0.00000000E+00  0.00000000E+00
  0.00000000E+00  0.00000000E+00  0.00000000E+00
  0.00000000E+00  0.00000000E+00  0.00000000E+00
  0.00000000E+00  0.00000000E+00  0.00000000E+00
  0.00000000E+00  0.00000000E+00  0.00000000E+00
  0.00000000E+00  0.00000000E+00  0.00000000E+00
  0.00000000E+00  0.00000000E+00  0.00000000E+00
  0.00000000E+00  0.00000000E+00  0.00000000E+00
  0.00000000E+00  0.00000000E+00  0.00000000E+00
