C O H                                   
   1.00000000000000     
    40.0000000000000000    0.0000000000000000    0.0000000000000000
     0.0000000000000000   40.0000000000000000    0.0000000000000000
     0.0000000000000000    0.0000000000000000   40.0000000000000000
   C    O    H 
    13     1    10
Selective dynamics
Direct
  0.4384125012505748  0.5299495031178623  0.5061415482450471   T   T   T
  0.4076432856506216  0.5139594621083745  0.5031258630937927   T   T   T
  0.4678958452366473  0.5140184966041090  0.4955226600872464   T   T   T
  0.4658857252414634  0.4819298324940107  0.4813359144819884   T   T   T
  0.4349518183643823  0.4661324957775435  0.4779023516296874   T   T   T
  0.4058575769647419  0.4820061876531909  0.4889531954623223   T   T   T
  0.5001520839460341  0.5327993508393476  0.4981080819515924   T   T   T
  0.5322414971926008  0.5141528783597593  0.5027694705272694   T   T   T
  0.5619080239301226  0.5285597566122888  0.4906053922828164   T   T   T
  0.5925128592824223  0.5127078964386911  0.4955134924429174   T   T   T
  0.5939621148598064  0.4824869094986042  0.5131158076406948   T   T   T
  0.5646872664131379  0.4681859982939116  0.5257028853117589   T   T   T
  0.5339238035591549  0.4838035549372250  0.5204149983868334   T   T   T
  0.5002877474806127  0.5637157580978212  0.4964294846643682   T   T   T
  0.4335697064704078  0.4413733142773211  0.4665802401486800   T   T   T
  0.3817431706570815  0.4695332148538185  0.4864735723109845   T   T   T
  0.4402306861228169  0.5549504083173744  0.5168499787959249   T   T   T
  0.3849649709803202  0.5263487175317536  0.5118029323355344   T   T   T
  0.4884809562787495  0.4695700796953020  0.4724103078979596   T   T   T
  0.5111900527311661  0.4727166249830290  0.5305664660027674   T   T   T
  0.6179543041342157  0.4701433296007167  0.5170561583298223   T   T   T
  0.5657854839731371  0.4448161078899773  0.5396981515232824   T   T   T
  0.5604050821134337  0.5522745018537805  0.4772495378727442   T   T   T
  0.6153554371663503  0.5238676201641823  0.4856715085739722   T   T   T
 
  0.00000000E+00  0.00000000E+00  0.00000000E+00
  0.00000000E+00  0.00000000E+00  0.00000000E+00
  0.00000000E+00  0.00000000E+00  0.00000000E+00
  0.00000000E+00  0.00000000E+00  0.00000000E+00
  0.00000000E+00  0.00000000E+00  0.00000000E+00
  0.00000000E+00  0.00000000E+00  0.00000000E+00
  0.00000000E+00  0.00000000E+00  0.00000000E+00
  0.00000000E+00  0.00000000E+00  0.00000000E+00
  0.00000000E+00  0.00000000E+00  0.00000000E+00
  0.00000000E+00  0.00000000E+00  0.00000000E+00
  0.00000000E+00  0.00000000E+00  0.00000000E+00
  0.00000000E+00  0.00000000E+00  0.00000000E+00
  0.00000000E+00  0.00000000E+00  0.00000000E+00
  0.00000000E+00  0.00000000E+00  0.00000000E+00
  0.00000000E+00  0.00000000E+00  0.00000000E+00
  0.00000000E+00  0.00000000E+00  0.00000000E+00
  0.00000000E+00  0.00000000E+00  0.00000000E+00
  0.00000000E+00  0.00000000E+00  0.00000000E+00
  0.00000000E+00  0.00000000E+00  0.00000000E+00
  0.00000000E+00  0.00000000E+00  0.00000000E+00
  0.00000000E+00  0.00000000E+00  0.00000000E+00
  0.00000000E+00  0.00000000E+00  0.00000000E+00
  0.00000000E+00  0.00000000E+00  0.00000000E+00
  0.00000000E+00  0.00000000E+00  0.00000000E+00
