C O H                                   
   1.00000000000000     
    40.0000000000000000    0.0000000000000000    0.0000000000000000
     0.0000000000000000   40.0000000000000000    0.0000000000000000
     0.0000000000000000    0.0000000000000000   40.0000000000000000
   C    O    H 
    10     1    12
Selective dynamics
Direct
  0.4857555270613145  0.5200670916128249  0.4999953270540760   T   T   T
  0.4533287083732857  0.5066713595384251  0.4999989851194354   T   T   T
  0.4487344625726022  0.4719385919323587  0.5000018675125297   T   T   T
  0.4770815260773086  0.4512623357380484  0.5000002908150977   T   T   T
  0.5092630632955089  0.4643989599356132  0.4999989714775490   T   T   T
  0.5141008158129801  0.4994102145731698  0.4999962345569377   T   T   T
  0.5471835824833517  0.5153443328240798  0.4999951336811888   T   T   T
  0.5771528248062583  0.5000338763588410  0.5000032028750365   T   T   T
  0.6100032959687810  0.5178415001293722  0.5000000676388068   T   T   T
  0.3942048570092170  0.5172999851610997  0.5000032152325978   T   T   T
  0.4279073116638928  0.5296719588327615  0.4999996751003807   T   T   T
  0.6250204368930636  0.5108480670201229  0.4780094832345196   T   T   T
  0.6250164264657532  0.5108621343331031  0.5219978523517217   T   T   T
  0.6068134517425350  0.5451013268870570  0.4999907965769481   T   T   T
  0.5783507191221912  0.4726957980010105  0.5000114748818074   T   T   T
  0.5467775536665567  0.5427407160670946  0.4999862177988362   T   T   T
  0.5306401993841263  0.4475102300771165  0.4999978957639552   T   T   T
  0.4736068746949164  0.4242146904371303  0.5000021688917892   T   T   T
  0.4238966440623528  0.4608692634234700  0.5000027572495944   T   T   T
  0.3781743090201368  0.5394548162054984  0.5000038374392617   T   T   T
  0.3891652599279083  0.5022840190548939  0.5224810386282743   T   T   T
  0.3891608553090621  0.5022811047936432  0.4775287327651186   T   T   T
  0.4886612945869181  0.5471976270632439  0.4999947733545232   T   T   T
 
  0.00000000E+00  0.00000000E+00  0.00000000E+00
  0.00000000E+00  0.00000000E+00  0.00000000E+00
  0.00000000E+00  0.00000000E+00  0.00000000E+00
  0.00000000E+00  0.00000000E+00  0.00000000E+00
  0.00000000E+00  0.00000000E+00  0.00000000E+00
  0.00000000E+00  0.00000000E+00  0.00000000E+00
  0.00000000E+00  0.00000000E+00  0.00000000E+00
  0.00000000E+00  0.00000000E+00  0.00000000E+00
  0.00000000E+00  0.00000000E+00  0.00000000E+00
  0.00000000E+00  0.00000000E+00  0.00000000E+00
  0.00000000E+00  0.00000000E+00  0.00000000E+00
  0.00000000E+00  0.00000000E+00  0.00000000E+00
  0.00000000E+00  0.00000000E+00  0.00000000E+00
  0.00000000E+00  0.00000000E+00  0.00000000E+00
  0.00000000E+00  0.00000000E+00  0.00000000E+00
  0.00000000E+00  0.00000000E+00  0.00000000E+00
  0.00000000E+00  0.00000000E+00  0.00000000E+00
  0.00000000E+00  0.00000000E+00  0.00000000E+00
  0.00000000E+00  0.00000000E+00  0.00000000E+00
  0.00000000E+00  0.00000000E+00  0.00000000E+00
  0.00000000E+00  0.00000000E+00  0.00000000E+00
  0.00000000E+00  0.00000000E+00  0.00000000E+00
  0.00000000E+00  0.00000000E+00  0.00000000E+00
