C H                                     
   1.00000000000000     
    40.0000000000000000    0.0000000000000000    0.0000000000000000
     0.0000000000000000   40.0000000000000000    0.0000000000000000
     0.0000000000000000    0.0000000000000000   40.0000000000000000
   C    H 
    12    14
Selective dynamics
Direct
  0.5119149090302599  0.4671466189380951  0.4999978384696178   T   T   T
  0.5350763665358116  0.4943164242350377  0.4999978257507252   T   T   T
  0.5219877345833126  0.5275172456477364  0.4999942616113984   T   T   T
  0.4880853815080570  0.5328526110858789  0.4999894741803672   T   T   T
  0.4649231711347710  0.5056827932537118  0.4999899024570951   T   T   T
  0.4780127505431651  0.4724818481637385  0.4999957680415648   T   T   T
  0.4299596136873163  0.5132858234764086  0.4999887329389949   T   T   T
  0.4041957384299266  0.4907035943659679  0.5000074495203393   T   T   T
  0.3685455328786134  0.5002018209734160  0.5000079568188127   T   T   T
  0.5700404103277421  0.4867144205094078  0.5000021527009864   T   T   T
  0.5958037108903937  0.5092969177569984  0.5000024180159244   T   T   T
  0.6314542577213160  0.4997989070667543  0.5000059101096568   T   T   T
  0.4611729564915024  0.4510812580979291  0.4999918573577204   T   T   T
  0.3557870312680507  0.4891852110053847  0.4781759707240170   T   T   T
  0.3647735591766335  0.5273279193262823  0.4999861518053166   T   T   T
  0.3558033168470018  0.4892257832640894  0.5218708043539877   T   T   T
  0.4096724206991595  0.4639229752558265  0.5000252717150246   T   T   T
  0.4234687307840517  0.5398508377100057  0.4999696167300058   T   T   T
  0.4782804326463790  0.5582941683913631  0.4999823227235751   T   T   T
  0.5388267449089952  0.5489180374946798  0.4999928633814221   T   T   T
  0.6442030125133584  0.5107985885749358  0.5218532004356859   T   T   T
  0.6442070261940671  0.5107918537660154  0.4781583328487216   T   T   T
  0.6352267752481495  0.4726728577543540  0.5000118156014182   T   T   T
  0.5903272565810198  0.5360772918593639  0.4999994781537751   T   T   T
  0.5765312747213613  0.4601499274320560  0.5000040376066295   T   T   T
  0.5217198846495705  0.4417052645945816  0.4999975859471419   T   T   T
 
  0.00000000E+00  0.00000000E+00  0.00000000E+00
  0.00000000E+00  0.00000000E+00  0.00000000E+00
  0.00000000E+00  0.00000000E+00  0.00000000E+00
  0.00000000E+00  0.00000000E+00  0.00000000E+00
  0.00000000E+00  0.00000000E+00  0.00000000E+00
  0.00000000E+00  0.00000000E+00  0.00000000E+00
  0.00000000E+00  0.00000000E+00  0.00000000E+00
  0.00000000E+00  0.00000000E+00  0.00000000E+00
  0.00000000E+00  0.00000000E+00  0.00000000E+00
  0.00000000E+00  0.00000000E+00  0.00000000E+00
  0.00000000E+00  0.00000000E+00  0.00000000E+00
  0.00000000E+00  0.00000000E+00  0.00000000E+00
  0.00000000E+00  0.00000000E+00  0.00000000E+00
  0.00000000E+00  0.00000000E+00  0.00000000E+00
  0.00000000E+00  0.00000000E+00  0.00000000E+00
  0.00000000E+00  0.00000000E+00  0.00000000E+00
  0.00000000E+00  0.00000000E+00  0.00000000E+00
  0.00000000E+00  0.00000000E+00  0.00000000E+00
  0.00000000E+00  0.00000000E+00  0.00000000E+00
  0.00000000E+00  0.00000000E+00  0.00000000E+00
  0.00000000E+00  0.00000000E+00  0.00000000E+00
  0.00000000E+00  0.00000000E+00  0.00000000E+00
  0.00000000E+00  0.00000000E+00  0.00000000E+00
  0.00000000E+00  0.00000000E+00  0.00000000E+00
  0.00000000E+00  0.00000000E+00  0.00000000E+00
  0.00000000E+00  0.00000000E+00  0.00000000E+00
