C H                                     
   1.00000000000000     
    40.0000000000000000    0.0000000000000000    0.0000000000000000
     0.0000000000000000   40.0000000000000000    0.0000000000000000
     0.0000000000000000    0.0000000000000000   40.0000000000000000
   C    H 
     8    10
Selective dynamics
Direct
  0.4703658739030926  0.4683572592825730  0.5007070291292567   T   T   T
  0.5001609786482801  0.4508089736046559  0.5000181995909041   T   T   T
  0.5298505286416957  0.4685385700184697  0.4993947655936314   T   T   T
  0.5301406835148215  0.5047504131624601  0.4997604450375341   T   T   T
  0.5626531272429167  0.5220928793568913  0.4991393484276905   T   T   T
  0.4999476722893982  0.5218788187857122  0.5004055936109438   T   T   T
  0.4698681117334942  0.5045656553790216  0.5007482427964133   T   T   T
  0.4372066579815667  0.5216303173682110  0.5009802630819329   T   T   T
  0.5602454364655471  0.5489473396091236  0.5024591129800333   T   T   T
  0.5793962928413520  0.5117137099552379  0.5181417844139929   T   T   T
  0.5751017666970220  0.5171530877472336  0.4751687882608659   T   T   T
  0.4395228856148588  0.5486616377982383  0.5023044026572224   T   T   T
  0.4219434719648351  0.5125452134488150  0.5218357533140375   T   T   T
  0.4231883260798145  0.5148288095765700  0.4783981042583406   T   T   T
  0.4998727374228125  0.5489608491080997  0.5006264501452438   T   T   T
  0.5536129174949433  0.4555524136244615  0.4986866303452638   T   T   T
  0.5002442380358509  0.4237820898548052  0.4999733560052038   T   T   T
  0.4466782934277271  0.4552309623194364  0.5012527303514865   T   T   T
 
  0.00000000E+00  0.00000000E+00  0.00000000E+00
  0.00000000E+00  0.00000000E+00  0.00000000E+00
  0.00000000E+00  0.00000000E+00  0.00000000E+00
  0.00000000E+00  0.00000000E+00  0.00000000E+00
  0.00000000E+00  0.00000000E+00  0.00000000E+00
  0.00000000E+00  0.00000000E+00  0.00000000E+00
  0.00000000E+00  0.00000000E+00  0.00000000E+00
  0.00000000E+00  0.00000000E+00  0.00000000E+00
  0.00000000E+00  0.00000000E+00  0.00000000E+00
  0.00000000E+00  0.00000000E+00  0.00000000E+00
  0.00000000E+00  0.00000000E+00  0.00000000E+00
  0.00000000E+00  0.00000000E+00  0.00000000E+00
  0.00000000E+00  0.00000000E+00  0.00000000E+00
  0.00000000E+00  0.00000000E+00  0.00000000E+00
  0.00000000E+00  0.00000000E+00  0.00000000E+00
  0.00000000E+00  0.00000000E+00  0.00000000E+00
  0.00000000E+00  0.00000000E+00  0.00000000E+00
  0.00000000E+00  0.00000000E+00  0.00000000E+00
