C N H                                   
   1.00000000000000     
    25.0000000000000000    0.0000000000000000    0.0000000000000000
     0.0000000000000000   25.0000000000000000    0.0000000000000000
     0.0000000000000000    0.0000000000000000   25.0000000000000000
   C    N    H 
    12     2     8
Selective dynamics
Direct
  0.4869490214516552  0.4910905506948103  0.3587863583346778   T   T   T
  0.4812090323556625  0.4869769357257321  0.5285779606074115   T   T   T
  0.5221644765138319  0.5151213346500669  0.5584511710715385   T   T   T
  0.5182972352863769  0.5124878132364660  0.6157424386679746   T   T   T
  0.4770204262200768  0.4841545424084658  0.6393050260788242   T   T   T
  0.4392932648047939  0.4582379524580889  0.6064968767262791   T   T   T
  0.4832370107975010  0.4884748043753045  0.4695688636304046   T   T   T
  0.5261601311323606  0.5180074659878340  0.4441127658900194   T   T   T
  0.5263984553180832  0.5181696594433088  0.3866184262702996   T   T   T
  0.4470217926376564  0.4636815788300670  0.3875139924940204   T   T   T
  0.5629528019141733  0.5432232607657067  0.5314827426338558   T   T   T
  0.5649133599320015  0.5446334693824619  0.4752906487271864   T   T   T
  0.4413883597876920  0.4596603477162997  0.5525003039697327   T   T   T
  0.4452733010243637  0.4624371658656609  0.4415548645542651   T   T   T
  0.5481645671416117  0.5330854364079920  0.6401304655931807   T   T   T
  0.4733656787844485  0.4816989914397372  0.6827867461755386   T   T   T
  0.4062715059125122  0.4356186878777177  0.6241536327531026   T   T   T
  0.5579218539138602  0.5398050939346404  0.3654196058287338   T   T   T
  0.4864523226522761  0.4907130061019538  0.3150776803465724   T   T   T
  0.4154174882307053  0.4419623459467962  0.3664459033205869   T   T   T
  0.5933050278640396  0.5641548318095260  0.5550117028137366   T   T   T
  0.5968228863243170  0.5666027249413547  0.4549698235120501   T   T   T
 
  0.00000000E+00  0.00000000E+00  0.00000000E+00
  0.00000000E+00  0.00000000E+00  0.00000000E+00
  0.00000000E+00  0.00000000E+00  0.00000000E+00
  0.00000000E+00  0.00000000E+00  0.00000000E+00
  0.00000000E+00  0.00000000E+00  0.00000000E+00
  0.00000000E+00  0.00000000E+00  0.00000000E+00
  0.00000000E+00  0.00000000E+00  0.00000000E+00
  0.00000000E+00  0.00000000E+00  0.00000000E+00
  0.00000000E+00  0.00000000E+00  0.00000000E+00
  0.00000000E+00  0.00000000E+00  0.00000000E+00
  0.00000000E+00  0.00000000E+00  0.00000000E+00
  0.00000000E+00  0.00000000E+00  0.00000000E+00
  0.00000000E+00  0.00000000E+00  0.00000000E+00
  0.00000000E+00  0.00000000E+00  0.00000000E+00
  0.00000000E+00  0.00000000E+00  0.00000000E+00
  0.00000000E+00  0.00000000E+00  0.00000000E+00
  0.00000000E+00  0.00000000E+00  0.00000000E+00
  0.00000000E+00  0.00000000E+00  0.00000000E+00
  0.00000000E+00  0.00000000E+00  0.00000000E+00
  0.00000000E+00  0.00000000E+00  0.00000000E+00
  0.00000000E+00  0.00000000E+00  0.00000000E+00
  0.00000000E+00  0.00000000E+00  0.00000000E+00
