C O H                                   
   1.00000000000000     
    40.0000000000000000    0.0000000000000000    0.0000000000000000
     0.0000000000000000   40.0000000000000000    0.0000000000000000
     0.0000000000000000    0.0000000000000000   40.0000000000000000
   C    O    H 
    12     1    10
Selective dynamics
Direct
  0.5341779105439930  0.4868824590683467  0.5197927309510539   T   T   T
  0.5656244737728066  0.4717567174240371  0.5209834548158981   T   T   T
  0.5927533235793524  0.4856006038265385  0.5038093658159327   T   T   T
  0.5882996026488829  0.5149371306402251  0.4853165031709817   T   T   T
  0.5569469427389937  0.5302487833565454  0.4837420617037946   T   T   T
  0.5300525662883619  0.5160615282901295  0.5009473081530201   T   T   T
  0.4699471689220399  0.5160590024230549  0.4990545626185283   T   T   T
  0.4430504280763710  0.5302467093475062  0.5162566813568921   T   T   T
  0.4116984396041427  0.5149357708069693  0.5146796151000889   T   T   T
  0.4072459845285075  0.4855972364124718  0.4961883710363608   T   T   T
  0.4343783730234357  0.4717528442390288  0.4790175868998999   T   T   T
  0.4658231782573902  0.4868789330017116  0.4802116132206029   T   T   T
  0.4999994448246667  0.5334626230606747  0.5000016733125818   T   T   T
  0.4869062375013668  0.4761783045215004  0.4666913194475930   T   T   T
  0.4311127824810405  0.4489998346947675  0.4643724623433606   T   T   T
  0.3828107567550169  0.4736043245720331  0.4951205688659006   T   T   T
  0.3907305425301379  0.5259698027009788  0.5281508006803911   T   T   T
  0.4469908501016916  0.5530313068801510  0.5306614955717143   T   T   T
  0.5530045110016816  0.5530304915130847  0.4693341980951183   T   T   T
  0.6092653516972016  0.5259696619513802  0.4718425484313988   T   T   T
  0.6171898189687007  0.4736081902924134  0.5048761357895510   T   T   T
  0.5688915833791661  0.4490056323791694  0.5356309104174193   T   T   T
  0.5130977287750569  0.4761831085972367  0.5333170322019124   T   T   T
 
  0.00000000E+00  0.00000000E+00  0.00000000E+00
  0.00000000E+00  0.00000000E+00  0.00000000E+00
  0.00000000E+00  0.00000000E+00  0.00000000E+00
  0.00000000E+00  0.00000000E+00  0.00000000E+00
  0.00000000E+00  0.00000000E+00  0.00000000E+00
  0.00000000E+00  0.00000000E+00  0.00000000E+00
  0.00000000E+00  0.00000000E+00  0.00000000E+00
  0.00000000E+00  0.00000000E+00  0.00000000E+00
  0.00000000E+00  0.00000000E+00  0.00000000E+00
  0.00000000E+00  0.00000000E+00  0.00000000E+00
  0.00000000E+00  0.00000000E+00  0.00000000E+00
  0.00000000E+00  0.00000000E+00  0.00000000E+00
  0.00000000E+00  0.00000000E+00  0.00000000E+00
  0.00000000E+00  0.00000000E+00  0.00000000E+00
  0.00000000E+00  0.00000000E+00  0.00000000E+00
  0.00000000E+00  0.00000000E+00  0.00000000E+00
  0.00000000E+00  0.00000000E+00  0.00000000E+00
  0.00000000E+00  0.00000000E+00  0.00000000E+00
  0.00000000E+00  0.00000000E+00  0.00000000E+00
  0.00000000E+00  0.00000000E+00  0.00000000E+00
  0.00000000E+00  0.00000000E+00  0.00000000E+00
  0.00000000E+00  0.00000000E+00  0.00000000E+00
  0.00000000E+00  0.00000000E+00  0.00000000E+00
