C H                                     
   1.00000000000000     
    40.0000000000000000    0.0000000000000000    0.0000000000000000
     0.0000000000000000   40.0000000000000000    0.0000000000000000
     0.0000000000000000    0.0000000000000000   40.0000000000000000
   C    H 
    10    12
Selective dynamics
Direct
  0.5269010105925842  0.4683560790498494  0.4999931791596042   T   T   T
  0.5357258530844516  0.5029444171817347  0.5000014431382961   T   T   T
  0.5098644742783277  0.5271454341523001  0.5000059734617016   T   T   T
  0.4767625258612662  0.5183373365654786  0.5000026044204058   T   T   T
  0.4683831575785662  0.4835348284370535  0.5000076288727127   T   T   T
  0.4940303244599404  0.4593023742141127  0.5000028715739584   T   T   T
  0.4329840686344331  0.4729721836434939  0.5000136832693113   T   T   T
  0.4499548165368285  0.5441861429615118  0.4999898693494096   T   T   T
  0.5693085931725351  0.5142946809142088  0.5000018091446822   T   T   T
  0.5969938714420977  0.4943507775336702  0.4999966800817893   T   T   T
  0.4871414678630775  0.4331234074829978  0.5000047794938169   T   T   T
  0.4304552769298799  0.4458998264290093  0.5000201055236198   T   T   T
  0.4200067246312751  0.4832276932046005  0.4781847922554325   T   T   T
  0.4200020757913603  0.4832428959223872  0.5218324308095840   T   T   T
  0.4338673509913030  0.5415575503733860  0.5219318743715482   T   T   T
  0.4338875536642872  0.5415509137347599  0.4780345302108332   T   T   T
  0.4606216565177769  0.5692233453635688  0.4999904202076373   T   T   T
  0.5168012146297362  0.5533355135910735  0.5000087018941221   T   T   T
  0.5956706896029561  0.4673298975552099  0.4999944491591440   T   T   T
  0.6216222392952224  0.5055554410396670  0.4999946751705960   T   T   T
  0.5728976045841955  0.5411787763644018  0.5000050160201268   T   T   T
  0.5461164498579304  0.4493514842855432  0.4999824824116747   T   T   T
 
  0.00000000E+00  0.00000000E+00  0.00000000E+00
  0.00000000E+00  0.00000000E+00  0.00000000E+00
  0.00000000E+00  0.00000000E+00  0.00000000E+00
  0.00000000E+00  0.00000000E+00  0.00000000E+00
  0.00000000E+00  0.00000000E+00  0.00000000E+00
  0.00000000E+00  0.00000000E+00  0.00000000E+00
  0.00000000E+00  0.00000000E+00  0.00000000E+00
  0.00000000E+00  0.00000000E+00  0.00000000E+00
  0.00000000E+00  0.00000000E+00  0.00000000E+00
  0.00000000E+00  0.00000000E+00  0.00000000E+00
  0.00000000E+00  0.00000000E+00  0.00000000E+00
  0.00000000E+00  0.00000000E+00  0.00000000E+00
  0.00000000E+00  0.00000000E+00  0.00000000E+00
  0.00000000E+00  0.00000000E+00  0.00000000E+00
  0.00000000E+00  0.00000000E+00  0.00000000E+00
  0.00000000E+00  0.00000000E+00  0.00000000E+00
  0.00000000E+00  0.00000000E+00  0.00000000E+00
  0.00000000E+00  0.00000000E+00  0.00000000E+00
  0.00000000E+00  0.00000000E+00  0.00000000E+00
  0.00000000E+00  0.00000000E+00  0.00000000E+00
  0.00000000E+00  0.00000000E+00  0.00000000E+00
  0.00000000E+00  0.00000000E+00  0.00000000E+00
