C O H                                   
   1.00000000000000     
    40.0000000000000000    0.0000000000000000    0.0000000000000000
     0.0000000000000000   40.0000000000000000    0.0000000000000000
     0.0000000000000000    0.0000000000000000   40.0000000000000000
   C    O    H 
    10     1    12
Selective dynamics
Direct
  0.5032002066300381  0.5307369124266774  0.4999993585838253   T   T   T
  0.4694387616332640  0.5363763300587202  0.4999982679266886   T   T   T
  0.4467747743396565  0.5088445154496951  0.4999984547883199   T   T   T
  0.4589077883602106  0.4754867332724156  0.5000011407841791   T   T   T
  0.4928670410651618  0.4702572840344799  0.5000027627096847   T   T   T
  0.5161570778257329  0.4973715468350677  0.5000008155648969   T   T   T
  0.5509153578341488  0.4894904014121337  0.5000001463139688   T   T   T
  0.5770780354272542  0.5118283390439926  0.5000001006509607   T   T   T
  0.6125412627423553  0.5017964023663662  0.5000023528640501   T   T   T
  0.3892881181689232  0.4910244060937355  0.4999970933708916   T   T   T
  0.4145888984697215  0.5170312151052685  0.4999971832250467   T   T   T
  0.6254430069450522  0.5126555024401417  0.5218374459389009   T   T   T
  0.6254423299141586  0.5126477854394150  0.4781627487033089   T   T   T
  0.6159728549660110  0.4746252612415731  0.5000067209027996   T   T   T
  0.5719524492227336  0.5386743896922989  0.4999966169263374   T   T   T
  0.5571578658702354  0.4628619777971667  0.5000058678534968   T   T   T
  0.5025524223588567  0.4447841360670975  0.5000048652259991   T   T   T
  0.4418023920375921  0.4543648565331467  0.5000019617960778   T   T   T
  0.3916043196553275  0.4756272247913830  0.5225821048165897   T   T   T
  0.3916076027434905  0.4756261177662707  0.4774128775211718   T   T   T
  0.3654423272966147  0.5042983550282503  0.4999943316194601   T   T   T
  0.4590992632332255  0.5615663271069842  0.4999972830758788   T   T   T
  0.5201678432602653  0.5520239799977483  0.4999984988374551   T   T   T
 
  0.00000000E+00  0.00000000E+00  0.00000000E+00
  0.00000000E+00  0.00000000E+00  0.00000000E+00
  0.00000000E+00  0.00000000E+00  0.00000000E+00
  0.00000000E+00  0.00000000E+00  0.00000000E+00
  0.00000000E+00  0.00000000E+00  0.00000000E+00
  0.00000000E+00  0.00000000E+00  0.00000000E+00
  0.00000000E+00  0.00000000E+00  0.00000000E+00
  0.00000000E+00  0.00000000E+00  0.00000000E+00
  0.00000000E+00  0.00000000E+00  0.00000000E+00
  0.00000000E+00  0.00000000E+00  0.00000000E+00
  0.00000000E+00  0.00000000E+00  0.00000000E+00
  0.00000000E+00  0.00000000E+00  0.00000000E+00
  0.00000000E+00  0.00000000E+00  0.00000000E+00
  0.00000000E+00  0.00000000E+00  0.00000000E+00
  0.00000000E+00  0.00000000E+00  0.00000000E+00
  0.00000000E+00  0.00000000E+00  0.00000000E+00
  0.00000000E+00  0.00000000E+00  0.00000000E+00
  0.00000000E+00  0.00000000E+00  0.00000000E+00
  0.00000000E+00  0.00000000E+00  0.00000000E+00
  0.00000000E+00  0.00000000E+00  0.00000000E+00
  0.00000000E+00  0.00000000E+00  0.00000000E+00
  0.00000000E+00  0.00000000E+00  0.00000000E+00
  0.00000000E+00  0.00000000E+00  0.00000000E+00
