C N H                                   
   1.00000000000000     
    40.0000000000000000    0.0000000000000000    0.0000000000000000
     0.0000000000000000   40.0000000000000000    0.0000000000000000
     0.0000000000000000    0.0000000000000000   40.0000000000000000
   C    N    H 
     8     1    11
Selective dynamics
Direct
  0.4801804115528657  0.5301887760845810  0.5001176578092493   T   T   T
  0.4454867076936348  0.5298848920934802  0.5003478375905540   T   T   T
  0.4276547154656306  0.5000015038191179  0.5004618928935971   T   T   T
  0.4454856678220976  0.4701177186619443  0.5003424735019834   T   T   T
  0.4801798512930996  0.4698122647230724  0.5001122035147063   T   T   T
  0.4984783114200225  0.5000001871636930  0.4999785530322725   T   T   T
  0.5509904791932229  0.5312876513741716  0.4996889251421328   T   T   T
  0.5509892125787462  0.4687090063688146  0.4996935687001468   T   T   T
  0.5328339975029436  0.4999991911421773  0.4997058800289790   T   T   T
  0.5776724098352168  0.5260537846160079  0.4994887312006112   T   T   T
  0.5451336716759100  0.5464565905914841  0.4776222993740402   T   T   T
  0.5454419115500616  0.5463080881602327  0.5219426290467369   T   T   T
  0.5776715728041237  0.4739417947949783  0.4995109180507838   T   T   T
  0.5454255809952714  0.4536880194444388  0.5219434335296345   T   T   T
  0.5451430188749044  0.4535432507604012  0.4776231139115945   T   T   T
  0.4930885349768028  0.4460452616558356  0.5000156392037656   T   T   T
  0.4322379875252646  0.4464426655661560  0.5003915711845299   T   T   T
  0.4005762526571561  0.5000024960567903  0.5005815746440266   T   T   T
  0.4322402524932123  0.5535604808721658  0.5004034013707777   T   T   T
  0.4930904520898106  0.5539553760504600  0.5000286962699042   T   T   T
 
  0.00000000E+00  0.00000000E+00  0.00000000E+00
  0.00000000E+00  0.00000000E+00  0.00000000E+00
  0.00000000E+00  0.00000000E+00  0.00000000E+00
  0.00000000E+00  0.00000000E+00  0.00000000E+00
  0.00000000E+00  0.00000000E+00  0.00000000E+00
  0.00000000E+00  0.00000000E+00  0.00000000E+00
  0.00000000E+00  0.00000000E+00  0.00000000E+00
  0.00000000E+00  0.00000000E+00  0.00000000E+00
  0.00000000E+00  0.00000000E+00  0.00000000E+00
  0.00000000E+00  0.00000000E+00  0.00000000E+00
  0.00000000E+00  0.00000000E+00  0.00000000E+00
  0.00000000E+00  0.00000000E+00  0.00000000E+00
  0.00000000E+00  0.00000000E+00  0.00000000E+00
  0.00000000E+00  0.00000000E+00  0.00000000E+00
  0.00000000E+00  0.00000000E+00  0.00000000E+00
  0.00000000E+00  0.00000000E+00  0.00000000E+00
  0.00000000E+00  0.00000000E+00  0.00000000E+00
  0.00000000E+00  0.00000000E+00  0.00000000E+00
  0.00000000E+00  0.00000000E+00  0.00000000E+00
  0.00000000E+00  0.00000000E+00  0.00000000E+00
