C H                                     
   1.00000000000000     
    40.0000000000000000    0.0000000000000000    0.0000000000000000
     0.0000000000000000   40.0000000000000000    0.0000000000000000
     0.0000000000000000    0.0000000000000000   40.0000000000000000
   C    H 
     7     8
Selective dynamics
Direct
  0.5525308904143685  0.4999977512093698  0.5001584205057418   T   T   T
  0.5348770790113108  0.4698080320502506  0.4999681143779869   T   T   T
  0.4999063531477166  0.4698806498565702  0.4996624411157601   T   T   T
  0.4818518802407682  0.5000024892143720  0.4996066977928460   T   T   T
  0.4441790453873597  0.5000014343857860  0.5001581404157357   T   T   T
  0.4999093854515559  0.5301220329601014  0.4996668837359165   T   T   T
  0.5348794795502098  0.5301901206200322  0.4999721963888472   T   T   T
  0.4339591178601074  0.5223427974938143  0.4878691108278384   T   T   T
  0.4339571293498085  0.4777357736012085  0.4877349744660742   T   T   T
  0.4347890289427959  0.4999226052686190  0.5260544389082893   T   T   T
  0.5483538320331395  0.5539267367554779  0.4999754946898663   T   T   T
  0.4863311057719475  0.5538327497966828  0.4994420105957957   T   T   T
  0.4863250661733694  0.4461710697189515  0.4994360691875286   T   T   T
  0.5483480961211876  0.4460698336795136  0.4999694442709674   T   T   T
  0.5798045105443494  0.4999969233892621  0.5003235627208035   T   T   T
 
  0.00000000E+00  0.00000000E+00  0.00000000E+00
  0.00000000E+00  0.00000000E+00  0.00000000E+00
  0.00000000E+00  0.00000000E+00  0.00000000E+00
  0.00000000E+00  0.00000000E+00  0.00000000E+00
  0.00000000E+00  0.00000000E+00  0.00000000E+00
  0.00000000E+00  0.00000000E+00  0.00000000E+00
  0.00000000E+00  0.00000000E+00  0.00000000E+00
  0.00000000E+00  0.00000000E+00  0.00000000E+00
  0.00000000E+00  0.00000000E+00  0.00000000E+00
  0.00000000E+00  0.00000000E+00  0.00000000E+00
  0.00000000E+00  0.00000000E+00  0.00000000E+00
  0.00000000E+00  0.00000000E+00  0.00000000E+00
  0.00000000E+00  0.00000000E+00  0.00000000E+00
  0.00000000E+00  0.00000000E+00  0.00000000E+00
  0.00000000E+00  0.00000000E+00  0.00000000E+00
