C N H                                   
   1.00000000000000     
    40.0000000000000000    0.0000000000000000    0.0000000000000000
     0.0000000000000000   40.0000000000000000    0.0000000000000000
     0.0000000000000000    0.0000000000000000   40.0000000000000000
   C    N    H 
     8     2     4
Selective dynamics
Direct
  0.4698136518570237  0.4902313825501423  0.5000008262219353   T   T   T
  0.4697235675755067  0.5254438363728653  0.5000038760146666   T   T   T
  0.5000007249393619  0.5427347142870360  0.5000003643897273   T   T   T
  0.5302768668088191  0.5254421034463874  0.4999931819259444   T   T   T
  0.5301860760289614  0.4902294665485414  0.4999902662398057   T   T   T
  0.4999992895204386  0.4723668239869312  0.4999938731652662   T   T   T
  0.5611366252411472  0.4724001171895651  0.5000021600362317   T   T   T
  0.4388625483745798  0.4724034891924589  0.4999998858164361   T   T   T
  0.5865167598056473  0.4579359249416015  0.5000241463821311   T   T   T
  0.4134813602603415  0.4579391568677806  0.4999965402027797   T   T   T
  0.4999986999361283  0.4451539726232880  0.4999924303890353   T   T   T
  0.5539656332463991  0.5388737925668892  0.4999915462924704   T   T   T
  0.5000009975117479  0.5699714302131085  0.5000030244103328   T   T   T
  0.4460351988939024  0.5388757892133924  0.5000088785132206   T   T   T
 
  0.00000000E+00  0.00000000E+00  0.00000000E+00
  0.00000000E+00  0.00000000E+00  0.00000000E+00
  0.00000000E+00  0.00000000E+00  0.00000000E+00
  0.00000000E+00  0.00000000E+00  0.00000000E+00
  0.00000000E+00  0.00000000E+00  0.00000000E+00
  0.00000000E+00  0.00000000E+00  0.00000000E+00
  0.00000000E+00  0.00000000E+00  0.00000000E+00
  0.00000000E+00  0.00000000E+00  0.00000000E+00
  0.00000000E+00  0.00000000E+00  0.00000000E+00
  0.00000000E+00  0.00000000E+00  0.00000000E+00
  0.00000000E+00  0.00000000E+00  0.00000000E+00
  0.00000000E+00  0.00000000E+00  0.00000000E+00
  0.00000000E+00  0.00000000E+00  0.00000000E+00
  0.00000000E+00  0.00000000E+00  0.00000000E+00
