C N H                                   
   1.00000000000000     
    40.0000000000000000    0.0000000000000000    0.0000000000000000
     0.0000000000000000   40.0000000000000000    0.0000000000000000
     0.0000000000000000    0.0000000000000000   40.0000000000000000
   C    N    H 
     6     2     8
Selective dynamics
Direct
  0.4816983290260842  0.5346234486203276  0.5002374829576273   T   T   T
  0.4514015768476471  0.5173869187880495  0.5002731421402430   T   T   T
  0.4513996359533680  0.4826134019127497  0.4997294525126050   T   T   T
  0.4816981184314136  0.4653771850585312  0.4997647907910784   T   T   T
  0.5122053704434635  0.4823160294655933  0.5001308190368132   T   T   T
  0.5122071848463350  0.5176842423732568  0.4998714252456924   T   T   T
  0.5427368624696962  0.4653344155195138  0.4990350722614999   T   T   T
  0.5427379875645864  0.5346655609842377  0.5009618872298411   T   T   T
  0.5611537391614223  0.4759895349068448  0.5127414057967219   T   T   T
  0.5408505252405101  0.4406704383050183  0.5042289342795709   T   T   T
  0.5611551304083480  0.5240078107049650  0.4872572559582646   T   T   T
  0.5408533540719370  0.5593293980807929  0.4957695706161147   T   T   T
  0.4818860679005844  0.4382135471237917  0.4997375907499311   T   T   T
  0.4280637912114824  0.4688162508982256  0.4995276344607046   T   T   T
  0.4280652647844758  0.5311851258420394  0.5004708446522205   T   T   T
  0.4818870616386469  0.5617866914160773  0.5002616913110879   T   T   T
 
  0.00000000E+00  0.00000000E+00  0.00000000E+00
  0.00000000E+00  0.00000000E+00  0.00000000E+00
  0.00000000E+00  0.00000000E+00  0.00000000E+00
  0.00000000E+00  0.00000000E+00  0.00000000E+00
  0.00000000E+00  0.00000000E+00  0.00000000E+00
  0.00000000E+00  0.00000000E+00  0.00000000E+00
  0.00000000E+00  0.00000000E+00  0.00000000E+00
  0.00000000E+00  0.00000000E+00  0.00000000E+00
  0.00000000E+00  0.00000000E+00  0.00000000E+00
  0.00000000E+00  0.00000000E+00  0.00000000E+00
  0.00000000E+00  0.00000000E+00  0.00000000E+00
  0.00000000E+00  0.00000000E+00  0.00000000E+00
  0.00000000E+00  0.00000000E+00  0.00000000E+00
  0.00000000E+00  0.00000000E+00  0.00000000E+00
  0.00000000E+00  0.00000000E+00  0.00000000E+00
  0.00000000E+00  0.00000000E+00  0.00000000E+00
