C N O H                                 
   1.00000000000000     
    40.0000000000000000    0.0000000000000000    0.0000000000000000
     0.0000000000000000   40.0000000000000000    0.0000000000000000
     0.0000000000000000    0.0000000000000000   40.0000000000000000
   C    N    O    H 
     7     1     1     9
Selective dynamics
Direct
  0.5453529129408530  0.5241255486055395  0.4998592669395236   T   T   T
  0.5165415467482337  0.5430724221946555  0.5006963836567052   T   T   T
  0.4851855158377235  0.5274665409513349  0.5009605160392321   T   T   T
  0.4827412160201101  0.4916412091288384  0.5006273965897333   T   T   T
  0.5114841169687593  0.4722005630977462  0.4998472896377983   T   T   T
  0.5429052496955639  0.4880399651722703  0.4992615530141830   T   T   T
  0.4224396881385641  0.4939650089770923  0.5008891614602887   T   T   T
  0.5712956800242672  0.4702121470153705  0.4979830347817978   T   T   T
  0.4534606030383070  0.4753572055213033  0.5010237051446869   T   T   T
  0.5709729591799506  0.4448133644166448  0.4972774243935894   T   T   T
  0.5940262759001871  0.4815136575553046  0.4973897599788347   T   T   T
  0.5094199399110139  0.4450439643414795  0.4995345312078622   T   T   T
  0.4028265354802585  0.4749581544936678  0.5008482533813421   T   T   T
  0.4204949437939933  0.5093428974490118  0.4782251336933861   T   T   T
  0.4202750859341931  0.5094540984102651  0.5234598178642550   T   T   T
  0.4626488428971559  0.5426851139706679  0.5014302676215785   T   T   T
  0.5179910075057337  0.5702501746021491  0.5010916121542225   T   T   T
  0.5699388799851441  0.5358569640966466  0.4995938924410048   T   T   T
 
  0.00000000E+00  0.00000000E+00  0.00000000E+00
  0.00000000E+00  0.00000000E+00  0.00000000E+00
  0.00000000E+00  0.00000000E+00  0.00000000E+00
  0.00000000E+00  0.00000000E+00  0.00000000E+00
  0.00000000E+00  0.00000000E+00  0.00000000E+00
  0.00000000E+00  0.00000000E+00  0.00000000E+00
  0.00000000E+00  0.00000000E+00  0.00000000E+00
  0.00000000E+00  0.00000000E+00  0.00000000E+00
  0.00000000E+00  0.00000000E+00  0.00000000E+00
  0.00000000E+00  0.00000000E+00  0.00000000E+00
  0.00000000E+00  0.00000000E+00  0.00000000E+00
  0.00000000E+00  0.00000000E+00  0.00000000E+00
  0.00000000E+00  0.00000000E+00  0.00000000E+00
  0.00000000E+00  0.00000000E+00  0.00000000E+00
  0.00000000E+00  0.00000000E+00  0.00000000E+00
  0.00000000E+00  0.00000000E+00  0.00000000E+00
  0.00000000E+00  0.00000000E+00  0.00000000E+00
  0.00000000E+00  0.00000000E+00  0.00000000E+00
