C Cl O H                                
   1.00000000000000     
    40.0000000000000000    0.0000000000000000    0.0000000000000000
     0.0000000000000000   40.0000000000000000    0.0000000000000000
     0.0000000000000000    0.0000000000000000   40.0000000000000000
   C    Cl   O    H 
     8     1     1     7
Selective dynamics
Direct
  0.5096570788488677  0.5232825294238879  0.5000110413861734   T   T   T
  0.5443492774230876  0.5238104601069438  0.5000063168384017   T   T   T
  0.5623802074261235  0.4935515649696427  0.4999960622899522   T   T   T
  0.5451430061900098  0.4627945881350044  0.4999967530254068   T   T   T
  0.5105343128944284  0.4623708791132231  0.5000043598615420   T   T   T
  0.4910501320539566  0.4925848065773835  0.5000042024488067   T   T   T
  0.4551357392422730  0.4910257009747383  0.5000027738671449   T   T   T
  0.4354816520102389  0.5237307048008262  0.4999876373572434   T   T   T
  0.6061763077599309  0.4941323990700752  0.4999871797913968   T   T   T
  0.4389168593739399  0.4633886550402408  0.5000135184653871   T   T   T
  0.4409453702738801  0.5393554297244521  0.5220870759663683   T   T   T
  0.4409739386463229  0.5393512196088110  0.4778943109371880   T   T   T
  0.4087215580063841  0.5177896763730274  0.4999736920427225   T   T   T
  0.4970099026687791  0.4386931868586430  0.5000051505438634   T   T   T
  0.5592908567133108  0.4394457314379068  0.4999925154186116   T   T   T
  0.5578013349861521  0.5475484322246658  0.5000154560945376   T   T   T
  0.4964314654823454  0.5471460355605586  0.5000229536652299   T   T   T
 
  0.00000000E+00  0.00000000E+00  0.00000000E+00
  0.00000000E+00  0.00000000E+00  0.00000000E+00
  0.00000000E+00  0.00000000E+00  0.00000000E+00
  0.00000000E+00  0.00000000E+00  0.00000000E+00
  0.00000000E+00  0.00000000E+00  0.00000000E+00
  0.00000000E+00  0.00000000E+00  0.00000000E+00
  0.00000000E+00  0.00000000E+00  0.00000000E+00
  0.00000000E+00  0.00000000E+00  0.00000000E+00
  0.00000000E+00  0.00000000E+00  0.00000000E+00
  0.00000000E+00  0.00000000E+00  0.00000000E+00
  0.00000000E+00  0.00000000E+00  0.00000000E+00
  0.00000000E+00  0.00000000E+00  0.00000000E+00
  0.00000000E+00  0.00000000E+00  0.00000000E+00
  0.00000000E+00  0.00000000E+00  0.00000000E+00
  0.00000000E+00  0.00000000E+00  0.00000000E+00
  0.00000000E+00  0.00000000E+00  0.00000000E+00
  0.00000000E+00  0.00000000E+00  0.00000000E+00
