C H                                     
   1.00000000000000     
    40.0000000000000000    0.0000000000000000    0.0000000000000000
     0.0000000000000000   40.0000000000000000    0.0000000000000000
     0.0000000000000000    0.0000000000000000   40.0000000000000000
   C    H 
    10    12
Selective dynamics
Direct
  0.5270216571414873  0.4681839410000858  0.5000049167855570   T   T   T
  0.5359391701030409  0.5029813880457218  0.5000037126683499   T   T   T
  0.5099830542255168  0.5272369139760504  0.5000015859334735   T   T   T
  0.4765907279060317  0.5184307712166327  0.4999997683007406   T   T   T
  0.4681066972301685  0.4833705938035642  0.5000007462000522   T   T   T
  0.4939458215199870  0.4590455471777429  0.5000050856360245   T   T   T
  0.4326048727450979  0.4727597872171903  0.4999997519848533   T   T   T
  0.4498032532685334  0.5444582040533991  0.4999974792254865   T   T   T
  0.5698104758201180  0.5143714887700717  0.5000024723843274   T   T   T
  0.5976312503293340  0.4944031622680505  0.4999949196951214   T   T   T
  0.4870778746897850  0.4326768897308920  0.5000076241135909   T   T   T
  0.4298204082313068  0.4455504489969494  0.5000016879808782   T   T   T
  0.4193873822065264  0.4831383021226539  0.4781290808739633   T   T   T
  0.4193838563730825  0.4831417297653271  0.5218667751305530   T   T   T
  0.4335245671687549  0.5419137995825660  0.5220338127017873   T   T   T
  0.4335232442567770  0.5419092544486058  0.4779629188188921   T   T   T
  0.4604577346261833  0.5696730987600467  0.4999948099537695   T   T   T
  0.5169136581947797  0.5536140203020998  0.5000010082831698   T   T   T
  0.5962451362489201  0.4672073189580490  0.4999843976439490   T   T   T
  0.6225021283934776  0.5054727696269261  0.4999920522295683   T   T   T
  0.5733928514628946  0.5414559087745007  0.5000084805737148   T   T   T
  0.5463331778581988  0.4490056614028932  0.5000069128821846   T   T   T
 
  0.00000000E+00  0.00000000E+00  0.00000000E+00
  0.00000000E+00  0.00000000E+00  0.00000000E+00
  0.00000000E+00  0.00000000E+00  0.00000000E+00
  0.00000000E+00  0.00000000E+00  0.00000000E+00
  0.00000000E+00  0.00000000E+00  0.00000000E+00
  0.00000000E+00  0.00000000E+00  0.00000000E+00
  0.00000000E+00  0.00000000E+00  0.00000000E+00
  0.00000000E+00  0.00000000E+00  0.00000000E+00
  0.00000000E+00  0.00000000E+00  0.00000000E+00
  0.00000000E+00  0.00000000E+00  0.00000000E+00
  0.00000000E+00  0.00000000E+00  0.00000000E+00
  0.00000000E+00  0.00000000E+00  0.00000000E+00
  0.00000000E+00  0.00000000E+00  0.00000000E+00
  0.00000000E+00  0.00000000E+00  0.00000000E+00
  0.00000000E+00  0.00000000E+00  0.00000000E+00
  0.00000000E+00  0.00000000E+00  0.00000000E+00
  0.00000000E+00  0.00000000E+00  0.00000000E+00
  0.00000000E+00  0.00000000E+00  0.00000000E+00
  0.00000000E+00  0.00000000E+00  0.00000000E+00
  0.00000000E+00  0.00000000E+00  0.00000000E+00
  0.00000000E+00  0.00000000E+00  0.00000000E+00
  0.00000000E+00  0.00000000E+00  0.00000000E+00
