C O H                                   
   1.00000000000000     
    40.0000000000000000    0.0000000000000000    0.0000000000000000
     0.0000000000000000   40.0000000000000000    0.0000000000000000
     0.0000000000000000    0.0000000000000000   40.0000000000000000
   C    O    H 
    10     2    10
Selective dynamics
Direct
  0.4937729949876584  0.4571420226424863  0.5014035458366735   T   T   T
  0.4587455767709656  0.4540615002049293  0.5006751526443196   T   T   T
  0.4406056705381829  0.4834465712097185  0.4997704511513987   T   T   T
  0.4564496926426784  0.5146235949835685  0.4998013557555012   T   T   T
  0.4907037304171951  0.5179831177914451  0.5006647926873242   T   T   T
  0.5101728627087638  0.4882753770664081  0.5013851070329025   T   T   T
  0.5468023233453962  0.4889147801034852  0.5020632553466271   T   T   T
  0.5669345948822340  0.5158910574383100  0.5016227794575840   T   T   T
  0.6042717083190610  0.5145230793663416  0.5023961353270892   T   T   T
  0.4012482994824751  0.5229830599035523  0.4944268616667529   T   T   T
  0.4326896483560176  0.5396896672017348  0.5001980992096549   T   T   T
  0.4063722148717162  0.4876929668448042  0.5000987571552358   T   T   T
  0.6134826673123470  0.4886679471659434  0.5033240307772715   T   T   T
  0.6151753192584621  0.5267364772072440  0.4802342831302866   T   T   T
  0.6143105894746910  0.5279994567814867  0.5242321623078325   T   T   T
  0.5559661072371824  0.5409525404978623  0.5006165971940248   T   T   T
  0.5586583174444044  0.4642197753176873  0.5029933336283534   T   T   T
  0.5021879439475825  0.5426699552789813  0.5009192223628673   T   T   T
  0.3934570837330611  0.5269625298233294  0.4682376768420582   T   T   T
  0.3825496452554731  0.5324197248652141  0.5121449582772684   T   T   T
  0.4465579854631514  0.4297108318774079  0.5008505720036851   T   T   T
  0.5088860235512911  0.4344329664280764  0.5019398702053124   T   T   T
 
  0.00000000E+00  0.00000000E+00  0.00000000E+00
  0.00000000E+00  0.00000000E+00  0.00000000E+00
  0.00000000E+00  0.00000000E+00  0.00000000E+00
  0.00000000E+00  0.00000000E+00  0.00000000E+00
  0.00000000E+00  0.00000000E+00  0.00000000E+00
  0.00000000E+00  0.00000000E+00  0.00000000E+00
  0.00000000E+00  0.00000000E+00  0.00000000E+00
  0.00000000E+00  0.00000000E+00  0.00000000E+00
  0.00000000E+00  0.00000000E+00  0.00000000E+00
  0.00000000E+00  0.00000000E+00  0.00000000E+00
  0.00000000E+00  0.00000000E+00  0.00000000E+00
  0.00000000E+00  0.00000000E+00  0.00000000E+00
  0.00000000E+00  0.00000000E+00  0.00000000E+00
  0.00000000E+00  0.00000000E+00  0.00000000E+00
  0.00000000E+00  0.00000000E+00  0.00000000E+00
  0.00000000E+00  0.00000000E+00  0.00000000E+00
  0.00000000E+00  0.00000000E+00  0.00000000E+00
  0.00000000E+00  0.00000000E+00  0.00000000E+00
  0.00000000E+00  0.00000000E+00  0.00000000E+00
  0.00000000E+00  0.00000000E+00  0.00000000E+00
  0.00000000E+00  0.00000000E+00  0.00000000E+00
  0.00000000E+00  0.00000000E+00  0.00000000E+00
