C N O H                                 
   1.00000000000000     
    40.0000000000000000    0.0000000000000000    0.0000000000000000
     0.0000000000000000   40.0000000000000000    0.0000000000000000
     0.0000000000000000    0.0000000000000000   40.0000000000000000
   C    N    O    H 
     7     1     1     7
Selective dynamics
Direct
  0.5160741538939513  0.4676253499589286  0.5000000000000000   T   T   T
  0.5499740007374121  0.4740703008804589  0.5000000000000000   T   T   T
  0.5614024324218178  0.5074687463699010  0.5000000000000000   T   T   T
  0.5387302680541030  0.5345151139203459  0.5000000000000000   T   T   T
  0.5047755916802543  0.5285189824096554  0.5000000000000000   T   T   T
  0.4928075392800580  0.4947258323285526  0.5000000000000000   T   T   T
  0.4582237244778044  0.4868088316618547  0.5000000000000000   T   T   T
  0.4357550460221370  0.5113394361629154  0.5000000000000000   T   T   T
  0.4047113954407599  0.4987821598032821  0.5000009999999975   T   T   T
  0.3895828331910452  0.5183064937302359  0.5000009999999975   T   T   T
  0.4500452142824595  0.4606738678026052  0.5000000000000000   T   T   T
  0.4869203085374176  0.5490568064690983  0.5000000000000000   T   T   T
  0.5482168846633103  0.5600404903093374  0.5000000000000000   T   T   T
  0.5882093871888314  0.5124213450337405  0.4999990000000025   T   T   T
  0.5679175580392953  0.4535873903016240  0.4999990000000025   T   T   T
  0.5066546620893405  0.4420588528574572  0.5000000000000000   T   T   T
 
  0.00000000E+00  0.00000000E+00  0.00000000E+00
  0.00000000E+00  0.00000000E+00  0.00000000E+00
  0.00000000E+00  0.00000000E+00  0.00000000E+00
  0.00000000E+00  0.00000000E+00  0.00000000E+00
  0.00000000E+00  0.00000000E+00  0.00000000E+00
  0.00000000E+00  0.00000000E+00  0.00000000E+00
  0.00000000E+00  0.00000000E+00  0.00000000E+00
  0.00000000E+00  0.00000000E+00  0.00000000E+00
  0.00000000E+00  0.00000000E+00  0.00000000E+00
  0.00000000E+00  0.00000000E+00  0.00000000E+00
  0.00000000E+00  0.00000000E+00  0.00000000E+00
  0.00000000E+00  0.00000000E+00  0.00000000E+00
  0.00000000E+00  0.00000000E+00  0.00000000E+00
  0.00000000E+00  0.00000000E+00  0.00000000E+00
  0.00000000E+00  0.00000000E+00  0.00000000E+00
  0.00000000E+00  0.00000000E+00  0.00000000E+00
