C F N O H                               
   1.00000000000000     
    40.0000000000000000    0.0000000000000000    0.0000000000000000
     0.0000000000000000   40.0000000000000000    0.0000000000000000
     0.0000000000000000    0.0000000000000000   40.0000000000000000
   C    F    N    O    H 
     6     1     1     2     4
Selective dynamics
Direct
  0.4701439530073176  0.4694864385679873  0.4999970831016682   T   T   T
  0.5049176088399396  0.4693742143627921  0.4999983231161593   T   T   T
  0.5229458124642132  0.4999996955960668  0.5000000081177518   T   T   T
  0.5049180945788483  0.5306253240183830  0.5000018349927799   T   T   T
  0.4701440884741376  0.5305138572648038  0.5000026431992524   T   T   T
  0.4532234596237264  0.4999998991617147  0.4999997944975547   T   T   T
  0.4185511592161678  0.5000001808063175  0.4999994685548685   T   T   T
  0.5579003960972295  0.4999996835863101  0.4999999408149876   T   T   T
  0.5736471358274040  0.4716468193970864  0.4999988686062622   T   T   T
  0.5736473070027837  0.5283523307189958  0.5000006363881937   T   T   T
  0.4560155958579675  0.5538204448387622  0.5000041502918435   T   T   T
  0.5189653882380064  0.5539100325248663  0.5000045288449755   T   T   T
  0.5189649862904610  0.4460894211936637  0.4999962668765860   T   T   T
  0.4560150144817830  0.4461796579622411  0.4999954525971120   T   T   T
 
  0.00000000E+00  0.00000000E+00  0.00000000E+00
  0.00000000E+00  0.00000000E+00  0.00000000E+00
  0.00000000E+00  0.00000000E+00  0.00000000E+00
  0.00000000E+00  0.00000000E+00  0.00000000E+00
  0.00000000E+00  0.00000000E+00  0.00000000E+00
  0.00000000E+00  0.00000000E+00  0.00000000E+00
  0.00000000E+00  0.00000000E+00  0.00000000E+00
  0.00000000E+00  0.00000000E+00  0.00000000E+00
  0.00000000E+00  0.00000000E+00  0.00000000E+00
  0.00000000E+00  0.00000000E+00  0.00000000E+00
  0.00000000E+00  0.00000000E+00  0.00000000E+00
  0.00000000E+00  0.00000000E+00  0.00000000E+00
  0.00000000E+00  0.00000000E+00  0.00000000E+00
  0.00000000E+00  0.00000000E+00  0.00000000E+00
