C N O H                                 
   1.00000000000000     
    40.0000000000000000    0.0000000000000000    0.0000000000000000
     0.0000000000000000   40.0000000000000000    0.0000000000000000
     0.0000000000000000    0.0000000000000000   40.0000000000000000
   C    N    O    H 
     7     1     1     9
Selective dynamics
Direct
  0.5454775318978428  0.5238298047555950  0.5006013225640840   T   T   T
  0.5162579373315600  0.5427242320891599  0.5006294567685867   T   T   T
  0.4844947106877414  0.5278379187022570  0.5006866010410127   T   T   T
  0.4827293830180693  0.4927783351922311  0.5006848301019365   T   T   T
  0.5118801160688579  0.4733484523169339  0.5006198537658707   T   T   T
  0.5435638416177522  0.4885067595209638  0.5005849767325260   T   T   T
  0.4226531666914505  0.4933675837889738  0.5007253780744770   T   T   T
  0.5723553854568837  0.4691739703839299  0.5019149859377191   T   T   T
  0.4533835865433140  0.4748772551498332  0.5006284670422003   T   T   T
  0.5701509252004782  0.4450378562656650  0.4943985014213082   T   T   T
  0.5937519694059094  0.4802046503939846  0.4938933478851285   T   T   T
  0.5095220221652318  0.4461511493102520  0.5005568024704502   T   T   T
  0.4026990661749971  0.4746187449319400  0.5007242536098937   T   T   T
  0.4204690770772371  0.5091451933293423  0.4782709452621376   T   T   T
  0.4205632378803791  0.5090640187063974  0.5232425893127320   T   T   T
  0.4621394222715026  0.5433293406148929  0.5006724030720494   T   T   T
  0.5180400412337938  0.5699707185251043  0.5005670383809406   T   T   T
  0.5698695792770043  0.5360330160225110  0.5005972465569565   T   T   T
 
  0.00000000E+00  0.00000000E+00  0.00000000E+00
  0.00000000E+00  0.00000000E+00  0.00000000E+00
  0.00000000E+00  0.00000000E+00  0.00000000E+00
  0.00000000E+00  0.00000000E+00  0.00000000E+00
  0.00000000E+00  0.00000000E+00  0.00000000E+00
  0.00000000E+00  0.00000000E+00  0.00000000E+00
  0.00000000E+00  0.00000000E+00  0.00000000E+00
  0.00000000E+00  0.00000000E+00  0.00000000E+00
  0.00000000E+00  0.00000000E+00  0.00000000E+00
  0.00000000E+00  0.00000000E+00  0.00000000E+00
  0.00000000E+00  0.00000000E+00  0.00000000E+00
  0.00000000E+00  0.00000000E+00  0.00000000E+00
  0.00000000E+00  0.00000000E+00  0.00000000E+00
  0.00000000E+00  0.00000000E+00  0.00000000E+00
  0.00000000E+00  0.00000000E+00  0.00000000E+00
  0.00000000E+00  0.00000000E+00  0.00000000E+00
  0.00000000E+00  0.00000000E+00  0.00000000E+00
  0.00000000E+00  0.00000000E+00  0.00000000E+00
