C N S H                                 
   1.00000000000000     
    40.0000000000000000    0.0000000000000000    0.0000000000000000
     0.0000000000000000   40.0000000000000000    0.0000000000000000
     0.0000000000000000    0.0000000000000000   40.0000000000000000
   C    N    S    H 
    16     3     1    18
Selective dynamics
Direct
  0.4657218681548940  0.5040080477846658  0.4998842142632967   T   T   T
  0.4340636844363246  0.5185794433280293  0.4997947426380307   T   T   T
  0.4046697941277060  0.4987466883424148  0.4996615240402633   T   T   T
  0.4088451236010968  0.4633516791846333  0.4996734491385553   T   T   T
  0.4403948231746284  0.4492847168270728  0.4997847321033220   T   T   T
  0.4703306568358556  0.4685099198723108  0.4998872291539698   T   T   T
  0.5296733033107657  0.4685137695207260  0.5001095592485925   T   T   T
  0.5596086204994677  0.4492907137646043  0.5001953242470520   T   T   T
  0.5911583557263924  0.4633603335457792  0.5003185545219750   T   T   T
  0.5953313049342555  0.4987550502522637  0.5003527359517719   T   T   T
  0.5659365121213398  0.5185858829177974  0.5002347781155763   T   T   T
  0.5342786262405212  0.5040105806861845  0.5001346996076563   T   T   T
  0.6300254875210669  0.5492249113190297  0.5004712002092262   T   T   T
  0.6562339635969394  0.4921047498263320  0.5005259077559359   T   T   T
  0.3437660470615000  0.4920949235237231  0.4994753906977394   T   T   T
  0.3699717079069202  0.5492156860281341  0.4995230678890934   T   T   T
  0.5000027482458478  0.4517774057174435  0.4999940073739140   T   T   T
  0.6265004789872961  0.5130543321291370  0.5004706620925532   T   T   T
  0.3734981599935168  0.5130442870390652  0.4995614825472217   T   T   T
  0.4999982317808289  0.5313972164225831  0.5000224905778410   T   T   T
  0.4431234255299401  0.4221374730020671  0.4997989281798425   T   T   T
  0.5677840072005367  0.5457665474769442  0.5002295336247329   T   T   T
  0.6185278666124603  0.5605165397716974  0.4780944965610487   T   T   T
  0.6182825384955919  0.5605223769168077  0.5227212376708721   T   T   T
  0.6565906812901474  0.5557211259671888  0.5006221340855674   T   T   T
  0.6784549920120426  0.5080404188885197  0.5006646634409222   T   T   T
  0.6571682564609773  0.4758909231116775  0.5227909901692698   T   T   T
  0.6573546064321718  0.4760235502370804  0.4781708925203034   T   T   T
  0.6128802627284671  0.4469606035635536  0.5003688050905879   T   T   T
  0.5568800707662405  0.4221420143283012  0.5001632527872886   T   T   T
  0.3871221317319851  0.4469538801908968  0.4996071505778872   T   T   T
  0.3426659501588176  0.4759603681285398  0.5217937026764048   T   T   T
  0.3428102207918968  0.4759335617527753  0.4771720487372306   T   T   T
  0.3215451006625969  0.5080291226618456  0.4993986958906262   T   T   T
  0.3814769426612230  0.5605327682260040  0.5218837765500339   T   T   T
  0.3817031628155902  0.5604912429071831  0.4772553861602375   T   T   T
  0.3434062678937835  0.5557084305712152  0.4993770457749918   T   T   T
  0.4322140174983886  0.5457587142657516  0.4998145073285514   T   T   T
 
  0.00000000E+00  0.00000000E+00  0.00000000E+00
  0.00000000E+00  0.00000000E+00  0.00000000E+00
  0.00000000E+00  0.00000000E+00  0.00000000E+00
  0.00000000E+00  0.00000000E+00  0.00000000E+00
  0.00000000E+00  0.00000000E+00  0.00000000E+00
  0.00000000E+00  0.00000000E+00  0.00000000E+00
  0.00000000E+00  0.00000000E+00  0.00000000E+00
  0.00000000E+00  0.00000000E+00  0.00000000E+00
  0.00000000E+00  0.00000000E+00  0.00000000E+00
  0.00000000E+00  0.00000000E+00  0.00000000E+00
  0.00000000E+00  0.00000000E+00  0.00000000E+00
  0.00000000E+00  0.00000000E+00  0.00000000E+00
  0.00000000E+00  0.00000000E+00  0.00000000E+00
  0.00000000E+00  0.00000000E+00  0.00000000E+00
  0.00000000E+00  0.00000000E+00  0.00000000E+00
  0.00000000E+00  0.00000000E+00  0.00000000E+00
  0.00000000E+00  0.00000000E+00  0.00000000E+00
  0.00000000E+00  0.00000000E+00  0.00000000E+00
  0.00000000E+00  0.00000000E+00  0.00000000E+00
  0.00000000E+00  0.00000000E+00  0.00000000E+00
  0.00000000E+00  0.00000000E+00  0.00000000E+00
  0.00000000E+00  0.00000000E+00  0.00000000E+00
  0.00000000E+00  0.00000000E+00  0.00000000E+00
  0.00000000E+00  0.00000000E+00  0.00000000E+00
  0.00000000E+00  0.00000000E+00  0.00000000E+00
  0.00000000E+00  0.00000000E+00  0.00000000E+00
  0.00000000E+00  0.00000000E+00  0.00000000E+00
  0.00000000E+00  0.00000000E+00  0.00000000E+00
  0.00000000E+00  0.00000000E+00  0.00000000E+00
  0.00000000E+00  0.00000000E+00  0.00000000E+00
  0.00000000E+00  0.00000000E+00  0.00000000E+00
  0.00000000E+00  0.00000000E+00  0.00000000E+00
  0.00000000E+00  0.00000000E+00  0.00000000E+00
  0.00000000E+00  0.00000000E+00  0.00000000E+00
  0.00000000E+00  0.00000000E+00  0.00000000E+00
  0.00000000E+00  0.00000000E+00  0.00000000E+00
  0.00000000E+00  0.00000000E+00  0.00000000E+00
  0.00000000E+00  0.00000000E+00  0.00000000E+00
