C N H                                   
   1.00000000000000     
    40.0000000000000000    0.0000000000000000    0.0000000000000000
     0.0000000000000000   40.0000000000000000    0.0000000000000000
     0.0000000000000000    0.0000000000000000   40.0000000000000000
   C    N    H 
     8     1    11
Selective dynamics
Direct
  0.4801156131101578  0.5303442040135451  0.5001110199355168   T   T   T
  0.4452420671303585  0.5300530336103861  0.5003183677898022   T   T   T
  0.4273051933626490  0.5000016063999055  0.5004170436318560   T   T   T
  0.4452409763434630  0.4699500825337566  0.5003118744423247   T   T   T
  0.4801142027958605  0.4696572675682873  0.5001050411980899   T   T   T
  0.4985923737498368  0.5000007932734150  0.4999821005444716   T   T   T
  0.5512145060001998  0.5314190865347328  0.4997116926196412   T   T   T
  0.5512125837311785  0.4685772676487261  0.4997182439054697   T   T   T
  0.5329937908988640  0.4999987592032724  0.4997215087048232   T   T   T
  0.5780817065176151  0.5262768076144795  0.4995135207183310   T   T   T
  0.5452696528148948  0.5467135248117998  0.4775327417602782   T   T   T
  0.5455752127566740  0.5465565177789031  0.5220837306242743   T   T   T
  0.5780799513147983  0.4737188626174671  0.4995388122007185   T   T   T
  0.5455582848545006  0.4534397548042932  0.5220872197849786   T   T   T
  0.5452805904356026  0.4532840959763078  0.4775348346853079   T   T   T
  0.4930956365470820  0.4457260905518723  0.5000015982265964   T   T   T
  0.4319376490999431  0.4460926587961325  0.5003666839504248   T   T   T
  0.4000533301670117  0.5000024201681796  0.5005514274521232   T   T   T
  0.4319397170402794  0.5539112082611126  0.5003797198837745   T   T   T
  0.4930979613290205  0.5542749578334210  0.5000138179412019   T   T   T
 
  0.00000000E+00  0.00000000E+00  0.00000000E+00
  0.00000000E+00  0.00000000E+00  0.00000000E+00
  0.00000000E+00  0.00000000E+00  0.00000000E+00
  0.00000000E+00  0.00000000E+00  0.00000000E+00
  0.00000000E+00  0.00000000E+00  0.00000000E+00
  0.00000000E+00  0.00000000E+00  0.00000000E+00
  0.00000000E+00  0.00000000E+00  0.00000000E+00
  0.00000000E+00  0.00000000E+00  0.00000000E+00
  0.00000000E+00  0.00000000E+00  0.00000000E+00
  0.00000000E+00  0.00000000E+00  0.00000000E+00
  0.00000000E+00  0.00000000E+00  0.00000000E+00
  0.00000000E+00  0.00000000E+00  0.00000000E+00
  0.00000000E+00  0.00000000E+00  0.00000000E+00
  0.00000000E+00  0.00000000E+00  0.00000000E+00
  0.00000000E+00  0.00000000E+00  0.00000000E+00
  0.00000000E+00  0.00000000E+00  0.00000000E+00
  0.00000000E+00  0.00000000E+00  0.00000000E+00
  0.00000000E+00  0.00000000E+00  0.00000000E+00
  0.00000000E+00  0.00000000E+00  0.00000000E+00
  0.00000000E+00  0.00000000E+00  0.00000000E+00
