C O H                                   
   1.00000000000000     
    40.0000000000000000    0.0000000000000000    0.0000000000000000
     0.0000000000000000   40.0000000000000000    0.0000000000000000
     0.0000000000000000    0.0000000000000000   40.0000000000000000
   C    O    H 
     4     1     4
Selective dynamics
Direct
  0.4851704634025964  0.4727999376361041  0.5000000000000000   T   T   T
  0.5191180292081441  0.4826985273449651  0.5000000000000000   T   T   T
  0.5191170292081395  0.5173024726550324  0.5000000000000000   T   T   T
  0.4851684634025943  0.5271990623638914  0.5000000000000000   T   T   T
  0.4647750486255191  0.4999990000000025  0.5000000000000000   T   T   T
  0.4730131591875804  0.5514618618692779  0.5000000000000000   T   T   T
  0.5403093238889340  0.5342143472086391  0.4999990000000025   T   T   T
  0.5403113238889290  0.4657886527913604  0.5000000000000000   T   T   T
  0.4730161591875799  0.4485361381307200  0.5000000000000000   T   T   T
 
  0.00000000E+00  0.00000000E+00  0.00000000E+00
  0.00000000E+00  0.00000000E+00  0.00000000E+00
  0.00000000E+00  0.00000000E+00  0.00000000E+00
  0.00000000E+00  0.00000000E+00  0.00000000E+00
  0.00000000E+00  0.00000000E+00  0.00000000E+00
  0.00000000E+00  0.00000000E+00  0.00000000E+00
  0.00000000E+00  0.00000000E+00  0.00000000E+00
  0.00000000E+00  0.00000000E+00  0.00000000E+00
  0.00000000E+00  0.00000000E+00  0.00000000E+00
