C N H                                   
   1.00000000000000     
    40.0000000000000000    0.0000000000000000    0.0000000000000000
     0.0000000000000000   40.0000000000000000    0.0000000000000000
     0.0000000000000000    0.0000000000000000   40.0000000000000000
   C    N    H 
     6     1     7
Selective dynamics
Direct
  0.4949764511834994  0.4689265976280670  0.4999923897777315   T   T   T
  0.5293752520938760  0.4693100395915645  0.5010057090805852   T   T   T
  0.5468280861045034  0.4999990000000025  0.5013934018708864   T   T   T
  0.5293752520938760  0.5306889604084309  0.5010057090805852   T   T   T
  0.4949774511834968  0.5310734023719330  0.4999923897777315   T   T   T
  0.4770482891183960  0.5000000000000000  0.4993499605623242   T   T   T
  0.4437688474131544  0.5000009999999975  0.4981146795983962   T   T   T
  0.4305438266993959  0.5217500198362092  0.4975829866932929   T   T   T
  0.4305428266993984  0.4782519801637929  0.4975829866932929   T   T   T
  0.4810259805407646  0.5544331184534120  0.4996031739142635   T   T   T
  0.5432341691014978  0.5541060532003442  0.5014218694813957   T   T   T
  0.5740454181258525  0.4999990000000025  0.5019307000738460   T   T   T
  0.5432331691015003  0.4458929467996441  0.5014218694813957   T   T   T
  0.4810239805407697  0.4455668815465879  0.4996031739142635   T   T   T
 
  0.00000000E+00  0.00000000E+00  0.00000000E+00
  0.00000000E+00  0.00000000E+00  0.00000000E+00
  0.00000000E+00  0.00000000E+00  0.00000000E+00
  0.00000000E+00  0.00000000E+00  0.00000000E+00
  0.00000000E+00  0.00000000E+00  0.00000000E+00
  0.00000000E+00  0.00000000E+00  0.00000000E+00
  0.00000000E+00  0.00000000E+00  0.00000000E+00
  0.00000000E+00  0.00000000E+00  0.00000000E+00
  0.00000000E+00  0.00000000E+00  0.00000000E+00
  0.00000000E+00  0.00000000E+00  0.00000000E+00
  0.00000000E+00  0.00000000E+00  0.00000000E+00
  0.00000000E+00  0.00000000E+00  0.00000000E+00
  0.00000000E+00  0.00000000E+00  0.00000000E+00
  0.00000000E+00  0.00000000E+00  0.00000000E+00
