C O H                                   
   1.00000000000000     
    40.0000000000000000    0.0000000000000000    0.0000000000000000
     0.0000000000000000   40.0000000000000000    0.0000000000000000
     0.0000000000000000    0.0000000000000000   40.0000000000000000
   C    O    H 
     9     1    10
Selective dynamics
Direct
  0.5068258273663130  0.5241664728753122  0.4997438945507883   T   T   T
  0.4720592690868278  0.5244228568687814  0.4995698010716464   T   T   T
  0.4530049953374749  0.4946122332189115  0.4995370498062688   T   T   T
  0.4711397987757603  0.4642008237937491  0.4997021685488720   T   T   T
  0.5057866393562042  0.4633701686124040  0.4998703924793413   T   T   T
  0.5254681756184544  0.4934360320579081  0.4999355740698754   T   T   T
  0.5613607198019958  0.4918919959371495  0.5000491553598067   T   T   T
  0.5811299115837629  0.5244499658836917  0.5000824591796063   T   T   T
  0.4153658771031025  0.4949751030865458  0.5004523585343845   T   T   T
  0.5776657752751233  0.4639265830288582  0.5001296977032793   T   T   T
  0.6079432945626410  0.5186332913895971  0.5002085505474977   T   T   T
  0.5756662739682200  0.5401638667882610  0.5221322640706860   T   T   T
  0.5758569730589539  0.5400835170647817  0.4779292266039578   T   T   T
  0.5189964459188969  0.4394954947501383  0.4998225047957893   T   T   T
  0.4572785572082606  0.4405840945627326  0.4995584359622465   T   T   T
  0.4054586997839599  0.4919420013571709  0.5260804074215937   T   T   T
  0.4052418129947699  0.5186333291935181  0.4907474687978080   T   T   T
  0.4046676377659272  0.4745030059207045  0.4854641264152443   T   T   T
  0.4589798029481271  0.5484806236875984  0.4993680101510558   T   T   T
  0.5201035124852463  0.5480295399221619  0.4996184539302403   T   T   T
 
  0.00000000E+00  0.00000000E+00  0.00000000E+00
  0.00000000E+00  0.00000000E+00  0.00000000E+00
  0.00000000E+00  0.00000000E+00  0.00000000E+00
  0.00000000E+00  0.00000000E+00  0.00000000E+00
  0.00000000E+00  0.00000000E+00  0.00000000E+00
  0.00000000E+00  0.00000000E+00  0.00000000E+00
  0.00000000E+00  0.00000000E+00  0.00000000E+00
  0.00000000E+00  0.00000000E+00  0.00000000E+00
  0.00000000E+00  0.00000000E+00  0.00000000E+00
  0.00000000E+00  0.00000000E+00  0.00000000E+00
  0.00000000E+00  0.00000000E+00  0.00000000E+00
  0.00000000E+00  0.00000000E+00  0.00000000E+00
  0.00000000E+00  0.00000000E+00  0.00000000E+00
  0.00000000E+00  0.00000000E+00  0.00000000E+00
  0.00000000E+00  0.00000000E+00  0.00000000E+00
  0.00000000E+00  0.00000000E+00  0.00000000E+00
  0.00000000E+00  0.00000000E+00  0.00000000E+00
  0.00000000E+00  0.00000000E+00  0.00000000E+00
  0.00000000E+00  0.00000000E+00  0.00000000E+00
  0.00000000E+00  0.00000000E+00  0.00000000E+00
